
.Version 9.3.2 of ABINIT 
.(MPI version, prepared for a x86_64_linux_intel19.1 computer) 

.Copyright (C) 1998-2020 ABINIT group . 
 ABINIT comes with ABSOLUTELY NO WARRANTY.
 It is free software, and you are welcome to redistribute it
 under certain conditions (GNU General Public License,
 see ~abinit/COPYING or http://www.gnu.org/copyleft/gpl.txt).

 ABINIT is a project of the Universite Catholique de Louvain,
 Corning Inc. and other collaborators, see ~abinit/doc/developers/contributors.txt .
 Please read https://docs.abinit.org/theory/acknowledgments for suggested
 acknowledgments of the ABINIT effort.
 For more information, see https://www.abinit.org .

.Starting date : Mon 27 Sep 2021.
- ( at 14h59 )
  
- input  file    -> abi.in
- output file    -> abi.out
- root for input  files -> abi-i
- root for output files -> abi-o
 
- inpspheads : Reading pseudopotential header in XML form from 
-   ~/ABINIT_PAW_PBE/paw_pbe_standard/La.xml
- inpspheads : Reading pseudopotential header in XML form from 
-   ~/ABINIT_PAW_PBE/paw_pbe_standard/Mo.xml
- inpspheads : Reading pseudopotential header in XML form from 
-   ~/ABINIT_PAW_PBE/paw_pbe_standard/O.xml
 
 DATASET    1 : space group P1 (#  1); Bravais aP (primitive triclinic)
================================================================================
 Values of the parameters that define the memory need for DATASET  1.
     intxc =       0    ionmov =       0      iscf =       7    lmnmax =      32
     lnmax =       8     mgfft =      75  mpssoang =       4    mqgrid =    3338
     natom =      26  nloc_mem =       2    nspden =       1   nspinor =       1
    nsppol =       1      nsym =       1    n1xccc =       1    ntypat =       3
    occopt =       1   xclevel =       2
-    mband =         104        mffmem =           1         mkmem =           1
       mpw =        1166          nfft =       27000          nkpt =           4
Pmy_natom=         7
 PAW method is used; the additional fine FFT grid is defined by:
   mgfftf=        75    nfftf =     27000
================================================================================
P This job should need less than                      39.938 Mbytes of memory.
  Rough estimation (10% accuracy) of disk space for files :
_ WF disk file :    111.023 Mbytes ; DEN or POT disk file :      0.208 Mbytes.
================================================================================
 
 
 DATASET    2 : space group P1 (#  1); Bravais aP (primitive triclinic)
================================================================================
 Values of the parameters that define the memory need for DATASET  2 (RF).
     intxc =       0      iscf =      -3    lmnmax =      32     lnmax =       8
     mgfft =      75  mpssoang =       4    mqgrid =    3338     natom =      26
  nloc_mem =       2    nspden =       1   nspinor =       1    nsppol =       1
      nsym =       1    n1xccc =       1    ntypat =       3    occopt =       1
   xclevel =       2
-    mband =         104        mffmem =           1         mkmem =           1
-   mkqmem =           1        mk1mem =           1           mpw =       19154
      nfft =      405000          nkpt =           4
Pmy_natom=         1
================================================================================
P This job should need less than                     603.114 Mbytes of memory.
  Rough estimation (10% accuracy) of disk space for files :
_ WF disk file :    121.585 Mbytes ; DEN or POT disk file :      3.092 Mbytes.
================================================================================
 
 
 DATASET    3 : space group P1 (#  1); Bravais aP (primitive triclinic)
================================================================================
 Values of the parameters that define the memory need for DATASET  3 (RF).
     intxc =       0      iscf =       7    lmnmax =      32     lnmax =       8
     mgfft =      75  mpssoang =       4    mqgrid =    3338     natom =      26
  nloc_mem =       2    nspden =       1   nspinor =       1    nsppol =       1
      nsym =       1    n1xccc =       1    ntypat =       3    occopt =       1
   xclevel =       2
-    mband =         104        mffmem =           1         mkmem =           1
-   mkqmem =           1        mk1mem =           1           mpw =       19154
      nfft =      405000          nkpt =           4
Pmy_natom=         1
================================================================================
P This job should need less than                    7161.750 Mbytes of memory.
  Rough estimation (10% accuracy) of disk space for files :
_ WF disk file :    121.585 Mbytes ; DEN or POT disk file :      3.092 Mbytes.
================================================================================
 
--------------------------------------------------------------------------------
------------- Echo of variables that govern the present computation ------------
--------------------------------------------------------------------------------
-
- outvars: echo of selected default values                                      
-   iomode0 =  0 , fftalg0 =512 , wfoptalg0 = 10
-
- outvars: echo of global parameters not present in the input file              
-  max_nthreads =    1
-
 -outvars: echo values of preprocessed input variables --------
-          iomode1          1
-          iomode2          0
-          iomode3          0
            acell      1.0000000000E+00  1.0000000000E+00  1.0000000000E+00 Bohr
              amu      1.38905500E+02  9.59400000E+01  1.59994000E+01
        autoparal           1
           bandpp1         26
           bandpp2          1
           bandpp3          1
     densfor_pred1          6
     densfor_pred2          2
     densfor_pred3          2
           diemac      4.00000000E+00
             ecut      3.00000000E+01 Hartree
           ecutsm      5.00000000E-01 Hartree
-          fftalg1        401
-          fftalg2        512
-          fftalg3        512
           getddk1          0
           getddk2          0
           getddk3          2
           getden1          0
           getden2         -1
           getden3          0
           getwfk1          0
           getwfk2         -1
           getwfk3          1
             iscf1          7
             iscf2         -3
             iscf3          7
              ixc     -116133
           jdtset        1    2    3
              kpt      2.50000000E-01  2.50000000E-01  2.50000000E-01
                      -2.50000000E-01  2.50000000E-01  2.50000000E-01
                       2.50000000E-01 -2.50000000E-01  2.50000000E-01
                      -2.50000000E-01 -2.50000000E-01  2.50000000E-01
           kptopt1          1
           kptopt2          2
           kptopt3          2
         kptrlatt        2    0    0      0    2    0      0    0    2
          kptrlen      2.66536462E+01
P           mkmem           1
P          mkqmem           1
P          mk1mem           1
            natom          26
            nband         104
           ndtset           3
            ngfft          72      75      75
          ngfftdg          72      75      75
             nkpt           4
-           npfft1         15
-           npfft2          1
-           npfft3          1
-           npkpt1          4
-           npkpt2          1
-           npkpt3          1
             nqpt1          0
             nqpt2          1
             nqpt3          1
            nstep1        100
            nstep2        150
            nstep3        150
             nsym           1
           ntypat           3
              occ      2.000000  2.000000  2.000000  2.000000  2.000000  2.000000
                       2.000000  2.000000  2.000000  2.000000  2.000000  2.000000
                       2.000000  2.000000  2.000000  2.000000  2.000000  2.000000
                       2.000000  2.000000  2.000000  2.000000  2.000000  2.000000
                       2.000000  2.000000  2.000000  2.000000  2.000000  2.000000
                       2.000000  2.000000  2.000000  2.000000  2.000000  2.000000
                       2.000000  2.000000  2.000000  2.000000  2.000000  2.000000
                       2.000000  2.000000  2.000000  2.000000  2.000000  2.000000
                       2.000000  2.000000  2.000000  2.000000  2.000000  2.000000
                       2.000000  2.000000  2.000000  2.000000  2.000000  2.000000
                       2.000000  2.000000  2.000000  2.000000  2.000000  2.000000
                       2.000000  2.000000  2.000000  2.000000  2.000000  2.000000
                       2.000000  2.000000  2.000000  2.000000  2.000000  2.000000
                       2.000000  2.000000  2.000000  2.000000  2.000000  2.000000
                       2.000000  2.000000  2.000000  2.000000  2.000000  2.000000
                       2.000000  2.000000  2.000000  2.000000  2.000000  2.000000
                       2.000000  2.000000  2.000000  2.000000  2.000000  2.000000
                       2.000000  2.000000
        optdriver1          0
        optdriver2          1
        optdriver3          1
        paral_kgb1          1
        paral_kgb2          0
        paral_kgb3          0
        pawecutdg      3.00000000E+01 Hartree
         pawmixdg1          1
         pawmixdg2          0
         pawmixdg3          0
         pawxcdev           0
           prteig           0
          rfatpol1          1       1
          rfatpol2          1       1
          rfatpol3          1      26
            rfdir1          0       0       0
            rfdir2          1       1       1
            rfdir3          1       1       1
           rfelfd1          0
           rfelfd2          2
           rfelfd3          3
           rfphon1          0
           rfphon2          0
           rfphon3          1
           rfstrs1          0
           rfstrs2          0
           rfstrs3          3
            rprim      1.3508398891E+01  1.3237663012E-02  6.9927916624E-01
                       1.2959992307E-02  1.3326816698E+01 -1.4557010261E-03
                       6.8838922930E-01 -1.3585522327E-03  1.3591372563E+01
           shiftk      5.00000000E-01  5.00000000E-01  5.00000000E-01
          spgroup           1
           tolvrs1     1.00000000E-20
           tolvrs2     0.00000000E+00
           tolvrs3     1.00000000E-20
           tolwfr1     0.00000000E+00
           tolwfr2     1.00000000E-22
           tolwfr3     0.00000000E+00
            typat      1  1  1  1  2  2  2  2  3  3  3  3  3  3  3  3  3  3  3  3
                       3  3  3  3  3  3
           useylm           1
         wfoptalg1        114
         wfoptalg2         10
         wfoptalg3         10
              wtk        0.25000    0.25000    0.25000    0.25000
           xangst      6.1731730560E+00  6.1358189945E+00  6.5695260239E+00
                       2.8883486038E+00  4.4035771163E+00  1.3257698352E+00
                       1.5213012472E+00  2.6174494297E+00  4.5683057592E+00
                       4.4491943702E+00  8.8048463204E-01  2.6354508704E+00
                       1.3975486281E+00  1.1382690832E+00  9.2649508577E-01
                       5.3082133505E+00  2.3372436327E+00  5.9802875031E+00
                       5.9360383249E+00  4.6711527405E+00  3.0394684017E+00
                       2.3953829340E+00  5.8648533944E+00  5.1723432268E+00
                       2.2959944021E+00  2.2532067716E+00  2.3066171667E+00
                       6.7076016903E+00  1.2998205748E+00  5.4654202199E+00
                       5.0596275996E+00  5.7801672143E+00  1.6526490804E+00
                       9.9652714115E-01  4.8223893024E+00  5.6767814834E+00
                       6.9469326065E+00  1.1654055165E+00  2.0161667122E+00
                       3.9957983788E+00  2.2002839318E+00  4.8070353467E+00
                       3.9979787166E-01  4.6695334978E+00  1.9779730114E+00
                       3.7024008673E+00  5.7231254444E+00  6.3520929118E+00
                       2.5062114996E+00  6.8700391237E+00  1.5661872630E+00
                       2.3544007849E+00  3.1198148987E-01  4.2268804788E+00
                       5.3359528323E+00  3.8297935468E+00  6.9401642751E+00
                       4.8416172518E+00  3.3464373105E+00  2.4029554774E+00
                       2.1369740116E+00  2.5893970872E+00  7.0158554846E+00
                       5.5516711761E+00  6.1259536297E+00  4.1400610689E+00
                       2.8218756253E+00  4.7170873363E+00  3.8443520114E+00
                       4.5246094448E+00  1.1815357559E+00  1.1315974749E-01
                       9.9537383019E-01  5.4885345390E-02 -5.5203191490E-01
                       6.3253793015E+00  3.5978956941E+00  4.5339770927E+00
            xcart      1.1665606447E+01  1.1595017501E+01  1.2414605008E+01
                       5.4581878376E+00  8.3215547549E+00  2.5053419038E+00
                       2.8748427228E+00  4.9462625888E+00  8.6328467762E+00
                       8.4077588717E+00  1.6638748188E+00  4.9802803818E+00
                       2.6409841645E+00  2.1510168328E+00  1.7508219756E+00
                       1.0031069487E+01  4.4167503716E+00  1.1301105577E+01
                       1.1217486748E+01  8.8271994044E+00  5.7437628688E+00
                       4.5266177287E+00  1.1082966725E+01  9.7743121639E+00
                       4.3388006226E+00  4.2579437192E+00  4.3588747385E+00
                       1.2675530203E+01  2.4563049083E+00  1.0328147417E+01
                       9.5613104977E+00  1.0922933037E+01  3.1230541557E+00
                       1.8831633808E+00  9.1129950877E+00  1.0727562320E+01
                       1.3127800090E+01  2.2022972599E+00  3.8100029242E+00
                       7.5509646182E+00  4.1579340456E+00  9.0839803164E+00
                       7.5550848595E-01  8.8241394792E+00  3.7378272897E+00
                       6.9965236734E+00  1.0815139714E+01  1.2003715974E+01
                       4.7360533652E+00  1.2982492466E+01  2.9596649999E+00
                       4.4491726905E+00  5.8955957438E-01  7.9876465014E+00
                       1.0083489511E+01  7.2372609490E+00  1.3115009797E+01
                       9.1493306461E+00  6.3238500378E+00  4.5409277618E+00
                       4.0382956350E+00  4.8932513440E+00  1.3258045454E+01
                       1.0491138103E+01  1.1576374663E+01  7.8235815936E+00
                       5.3325721129E+00  8.9140032105E+00  7.2647724600E+00
                       8.5502727089E+00  2.2327789948E+00  2.1384093203E-01
                       1.8809839389E+00  1.0371827150E-01 -1.0431891358E+00
                       1.1953234566E+01  6.7990375166E+00  8.5679749979E+00
             xred      8.1834069505E-01  8.6932751438E-01  8.7140734573E-01
                       3.9509898555E-01  6.2404606117E-01  1.6407215892E-01
                       1.8056596376E-01  3.7103554250E-01  6.2592065937E-01
                       6.0520331505E-01  1.2428465913E-01  3.3530500414E-01
                       1.8928293370E-01  1.6122927310E-01  1.1909724773E-01
                       7.0172802097E-01  3.3080231052E-01  7.9542248514E-01
                       8.1035873339E-01  6.6159758414E-01  3.8098131396E-01
                       2.9842856677E-01  8.3140428440E-01  7.0389046553E-01
                       3.0534202152E-01  3.1922973088E-01  3.0503321928E-01
                       9.0180698389E-01  1.8348991431E-01  7.1352614626E-01
                       6.9713279913E-01  8.1894787313E-01  1.9400217632E-01
                       9.8783697971E-02  6.8379066946E-01  7.8428284437E-01
                       9.5989784733E-01  1.6432312913E-01  2.3095574407E-01
                       5.2600160593E-01  3.1154043713E-01  6.4133418617E-01
                       4.1383671766E-02  6.6212079611E-01  2.7295642018E-01
                       4.7339006047E-01  8.1114944889E-01  8.5891729507E-01
                       3.3945393795E-01  9.7384630082E-01  2.0039988968E-01
                       3.0015873985E-01  4.3998775868E-02  5.7226124595E-01
                       6.9859500372E-01  5.4246077910E-01  9.2906632259E-01
                       6.6155816479E-01  4.7389413554E-01  3.0011713307E-01
                       2.4953686007E-01  3.6702357474E-01  9.6267567843E-01
                       7.4842892964E-01  8.6796399390E-01  5.3721464097E-01
                       3.6784026019E-01  6.6856434043E-01  5.1565966769E-01
                       6.3365830951E-01  1.6690917253E-01 -1.6850406492E-02
                       1.4352584086E-01  7.6315313734E-03 -8.4137393156E-02
                       8.5449805116E-01  5.0938816737E-01  5.8648850902E-01
            znucl       57.00000   42.00000    8.00000
 
================================================================================
 
 chkinp: Checking input parameters for consistency, jdtset=   1.
 
 chkinp: Checking input parameters for consistency, jdtset=   2.
 
 chkinp: Checking input parameters for consistency, jdtset=   3.
 
================================================================================
== DATASET  1 ==================================================================
-   mpi_nproc: 60, omp_nthreads: 1 (-1 if OMP is not activated)
 

--- !DatasetInfo
iteration_state: {dtset: 1, }
dimensions: {natom: 26, nkpt: 4, mband: 104, nsppol: 1, nspinor: 1, nspden: 1, mpw: 1166, }
cutoff_energies: {ecut:  30.0, pawecutdg:  30.0, }
electrons: {nelect:   2.08000000E+02, charge:   0.00000000E+00, occopt:   1.00000000E+00, tsmear:   1.00000000E-02, }
meta: {optdriver: 0, ionmov: 0, optcell: 0, iscf: 7, paral_kgb: 1, }
...

 Real(R)+Recip(G) space primitive vectors, cartesian coordinates (Bohr,Bohr^-1):
 R(1)= 13.5083989  0.0132377  0.6992792  G(1)=  0.0742227 -0.0000726 -0.0037593
 R(2)=  0.0129600 13.3268167 -0.0014557  G(2)= -0.0000741  0.0750367  0.0000113
 R(3)=  0.6883892 -0.0013586 13.5913726  G(3)= -0.0038188  0.0000118  0.0737695
 Unit cell volume ucvol=  2.4403551E+03 bohr^3
 Angles (23,13,12)=  9.00091518E+01  8.41371705E+01  8.98886070E+01 degrees
 
 Coarse grid specifications (used for wave-functions):
 
 getcut: wavevector=  0.0000  0.0000  0.0000  ngfft=  72  75  75
         ecut(hartree)=     30.000   => boxcut(ratio)=   2.15892
 
 Fine grid specifications (used for densities):
 
 getcut: wavevector=  0.0000  0.0000  0.0000  ngfft=  72  75  75
         ecut(hartree)=     30.000   => boxcut(ratio)=   2.15892
 
--- Pseudopotential description ------------------------------------------------
- pspini: atom type   1  psp file is ~/ABINIT_PAW_PBE/paw_pbe_standard/La.xml
- pspatm: opening atomic psp file    ~/ABINIT_PAW_PBE/paw_pbe_standard/La.xml
- pspatm : Reading pseudopotential header in XML form from ~/ABINIT_PAW_PBE/paw_pbe_standard/La.xml
 Pseudopotential format is: paw10
 basis_size (lnmax)=  8 (lmn_size= 32), orbitals=   0   0   1   1   2   2   3   3
 Spheres core radius: rc_sph= 2.51647158
 1 radial meshes are used:
  - mesh 1: r(i)=AA*[exp(BB*(i-1))-1], size=1500 , AA= 0.15403E-03 BB= 0.87795E-02
 Shapefunction is SIN type: shapef(r)=[sin(pi*r/rshp)/(pi*r/rshp)]**2
 Radius for shape functions =  2.30494653
 mmax= 1500
 Radial grid used for partial waves is grid 1
 Radial grid used for projectors is grid 1
 Radial grid used for (t)core density is grid 1
 Radial grid used for Vloc is grid 1
 Radial grid used for pseudo valence density is grid 1
 Mesh size for Vloc has been set to 1342 to avoid numerical noise.
 Compensation charge density is not taken into account in XC energy/potential
 pspatm: atomic psp has been read  and splines computed
 
- pspini: atom type   2  psp file is ~/ABINIT_PAW_PBE/paw_pbe_standard/Mo.xml
- pspatm: opening atomic psp file    ~/ABINIT_PAW_PBE/paw_pbe_standard/Mo.xml
- pspatm : Reading pseudopotential header in XML form from ~/ABINIT_PAW_PBE/paw_pbe_standard/Mo.xml
 Pseudopotential format is: paw10
 basis_size (lnmax)=  6 (lmn_size= 18), orbitals=   0   0   1   1   2   2
 Spheres core radius: rc_sph= 2.20000000
 1 radial meshes are used:
  - mesh 1: r(i)=AA*[exp(BB*(i-1))-1], size= 846 , AA= 0.34789E-03 BB= 0.14611E-01
 Shapefunction is SIN type: shapef(r)=[sin(pi*r/rshp)/(pi*r/rshp)]**2
 Radius for shape functions =  1.90088266
 mmax=  846
 Radial grid used for partial waves is grid 1
 Radial grid used for projectors is grid 1
 Radial grid used for (t)core density is grid 1
 Radial grid used for Vloc is grid 1
 Radial grid used for pseudo valence density is grid 1
 Mesh size for Vloc has been set to  751 to avoid numerical noise.
 Compensation charge density is not taken into account in XC energy/potential
 pspatm: atomic psp has been read  and splines computed
 
- pspini: atom type   3  psp file is ~/ABINIT_PAW_PBE/paw_pbe_standard/O.xml
- pspatm: opening atomic psp file    ~/ABINIT_PAW_PBE/paw_pbe_standard/O.xml
- pspatm : Reading pseudopotential header in XML form from ~/ABINIT_PAW_PBE/paw_pbe_standard/O.xml
 Pseudopotential format is: paw10
 basis_size (lnmax)=  4 (lmn_size=  8), orbitals=   0   0   1   1
 Spheres core radius: rc_sph= 1.41465230
 1 radial meshes are used:
  - mesh 1: r(i)=AA*[exp(BB*(i-1))-1], size=2001 , AA= 0.72565E-03 BB= 0.58052E-02
 Shapefunction is SIN type: shapef(r)=[sin(pi*r/rshp)/(pi*r/rshp)]**2
 Radius for shape functions =  1.20231231
 mmax= 2001
 Radial grid used for partial waves is grid 1
 Radial grid used for projectors is grid 1
 Radial grid used for (t)core density is grid 1
 Radial grid used for Vloc is grid 1
 Radial grid used for pseudo valence density is grid 1
 Mesh size for Vloc has been set to 1762 to avoid numerical noise.
 Compensation charge density is not taken into account in XC energy/potential
 pspatm: atomic psp has been read  and splines computed
 
   8.97881771E+04                                ecore*ucvol(ha*bohr**3)
--------------------------------------------------------------------------------
 
_setup2: Arith. and geom. avg. npw (full set) are    1162.750    1162.746
 
================================================================================

--- !BeginCycle
iteration_state: {dtset: 1, }
solver: {iscf: 7, nstep: 100, nline: 4, wfoptalg: 114, }
tolerances: {tolvrs: 1.00E-20, }
...
 
     iter   Etot(hartree)      deltaE(h)  residm     vres2
 ETOT  1  -689.22244979599    -6.892E+02 1.668E-02 2.307E+04
 ETOT  2  -685.43023952784     3.792E+00 9.266E-04 4.689E+04
 ETOT  3  -693.60899407724    -8.179E+00 9.049E-04 3.163E+03
