
.Version 9.3.2 of ABINIT 
.(MPI version, prepared for a x86_64_linux_intel19.1 computer) 

.Copyright (C) 1998-2020 ABINIT group . 
 ABINIT comes with ABSOLUTELY NO WARRANTY.
 It is free software, and you are welcome to redistribute it
 under certain conditions (GNU General Public License,
 see ~abinit/COPYING or http://www.gnu.org/copyleft/gpl.txt).

 ABINIT is a project of the Universite Catholique de Louvain,
 Corning Inc. and other collaborators, see ~abinit/doc/developers/contributors.txt .
 Please read https://docs.abinit.org/theory/acknowledgments for suggested
 acknowledgments of the ABINIT effort.
 For more information, see https://www.abinit.org .

.Starting date : Wed 22 Sep 2021.
- ( at 17h30 )
  
- input  file    -> abi.in
- output file    -> abi.out
- root for input  files -> abi-i
- root for output files -> abi-o
 
- inpspheads : Reading pseudopotential header in XML form from 
-   ~/ABINIT_PAW_PBE/paw_pbe_standard/La.xml
- inpspheads : Reading pseudopotential header in XML form from 
-   ~/ABINIT_PAW_PBE/paw_pbe_standard/Mo.xml
- inpspheads : Reading pseudopotential header in XML form from 
-   ~/ABINIT_PAW_PBE/paw_pbe_standard/O.xml
 
 DATASET    1 : space group P1 (#  1); Bravais aP (primitive triclinic)
================================================================================
 Values of the parameters that define the memory need for DATASET  1.
     intxc =       0    ionmov =       2      iscf =       7    lmnmax =      32
     lnmax =       8     mgfft =      75  mpssoang =       4    mqgrid =    3468
     natom =      26  nloc_mem =       2    nspden =       1   nspinor =       1
    nsppol =       1      nsym =       1    n1xccc =       1    ntypat =       3
    occopt =       1   xclevel =       2
-    mband =         104        mffmem =           1         mkmem =           2
       mpw =        1412          nfft =       27000          nkpt =           4
Pmy_natom=        13
 PAW method is used; the additional fine FFT grid is defined by:
   mgfftf=        75    nfftf =     27000
================================================================================
P This job should need less than                      44.935 Mbytes of memory.
  Rough estimation (10% accuracy) of disk space for files :
_ WF disk file :    134.445 Mbytes ; DEN or POT disk file :      0.208 Mbytes.
================================================================================
 
--------------------------------------------------------------------------------
------------- Echo of variables that govern the present computation ------------
--------------------------------------------------------------------------------
-
- outvars: echo of selected default values                                      
-   iomode0 =  0 , fftalg0 =512 , wfoptalg0 = 10
-
- outvars: echo of global parameters not present in the input file              
-  max_nthreads =    1
-
 -outvars: echo values of preprocessed input variables --------
-          iomode           1
            acell      1.0000000000E+00  1.0000000000E+00  1.0000000000E+00 Bohr
              amu      1.38905500E+02  9.59400000E+01  1.59994000E+01
        autoparal           1
           bandpp          26
     densfor_pred           6
           diemac      4.00000000E+00
          dilatmx      1.04000000E+00
             ecut      3.00000000E+01 Hartree
           ecutsm      5.00000000E-01 Hartree
-          fftalg         401
           ionmov           2
             iscf           7
              ixc     -116133
           jdtset        1
              kpt      2.50000000E-01  2.50000000E-01  2.50000000E-01
                      -2.50000000E-01  2.50000000E-01  2.50000000E-01
                       2.50000000E-01 -2.50000000E-01  2.50000000E-01
                      -2.50000000E-01 -2.50000000E-01  2.50000000E-01
         kptrlatt        2    0    0      0    2    0      0    0    2
          kptrlen      2.66254344E+01
P           mkmem           2
            natom          26
            nband         104
           ndtset           1
            ngfft          72      75      75
          ngfftdg          72      75      75
             nkpt           4
-           npfft          15
-           npkpt           2
            nstep         100
             nsym           1
            ntime         150
           ntypat           3
              occ      2.000000  2.000000  2.000000  2.000000  2.000000  2.000000
                       2.000000  2.000000  2.000000  2.000000  2.000000  2.000000
                       2.000000  2.000000  2.000000  2.000000  2.000000  2.000000
                       2.000000  2.000000  2.000000  2.000000  2.000000  2.000000
                       2.000000  2.000000  2.000000  2.000000  2.000000  2.000000
                       2.000000  2.000000  2.000000  2.000000  2.000000  2.000000
                       2.000000  2.000000  2.000000  2.000000  2.000000  2.000000
                       2.000000  2.000000  2.000000  2.000000  2.000000  2.000000
                       2.000000  2.000000  2.000000  2.000000  2.000000  2.000000
                       2.000000  2.000000  2.000000  2.000000  2.000000  2.000000
                       2.000000  2.000000  2.000000  2.000000  2.000000  2.000000
                       2.000000  2.000000  2.000000  2.000000  2.000000  2.000000
                       2.000000  2.000000  2.000000  2.000000  2.000000  2.000000
                       2.000000  2.000000  2.000000  2.000000  2.000000  2.000000
                       2.000000  2.000000  2.000000  2.000000  2.000000  2.000000
                       2.000000  2.000000  2.000000  2.000000  2.000000  2.000000
                       2.000000  2.000000  2.000000  2.000000  2.000000  2.000000
                       2.000000  2.000000
          optcell           2
        paral_kgb           1
        pawecutdg      3.00000000E+01 Hartree
         pawmixdg           1
         pawxcdev           0
           prtcif           1
           prteig           0
            rprim      1.3312715685E+01 -1.0403299369E-03  6.2270153653E-03
                      -7.4016537673E-04  1.3575777766E+01  6.8482057284E-01
                       6.2903295016E-03  7.1189105740E-01  1.3566855103E+01
           shiftk      5.00000000E-01  5.00000000E-01  5.00000000E-01
          spgroup           1
           tolmxf      1.00000000E-08
           tolvrs      1.00000000E-20
            typat      1  1  1  1  2  2  2  2  3  3  3  3  3  3  3  3  3  3  3  3
                       3  3  3  3  3  3
           useylm           1
         wfoptalg         114
              wtk        0.25000    0.25000    0.25000    0.25000
           xangst      6.1285142925E+00  6.5681549016E+00  6.1961167981E+00
                       2.6074990288E+00  4.5748049556E+00  1.5254179001E+00
                       8.7805226910E-01  2.6352746552E+00  4.4647290653E+00
                       4.3969401050E+00  1.3314389838E+00  2.8991851047E+00
                       1.1354229032E+00  9.3108271555E-01  1.4026959851E+00
                       4.6629674042E+00  3.0372144100E+00  5.9596831324E+00
                       5.8566770025E+00  5.1733973193E+00  2.3979418688E+00
                       2.3357438004E+00  5.9740100295E+00  5.3287572874E+00
                       2.2495528276E+00  2.3119357567E+00  2.2995702674E+00
                       5.7742173509E+00  1.6550583781E+00  5.0759389111E+00
                       4.8175757980E+00  5.6761562483E+00  9.9459415623E-01
                       1.2960121911E+00  5.4665050078E+00  6.7306376513E+00
                       6.8612934517E+00  1.5650260697E+00  2.5132329611E+00
                       3.3409068925E+00  2.4032963476E+00  4.8568298556E+00
                       3.0928915560E-01  4.2235148144E+00  2.3710100310E+00
                       3.8291168404E+00  6.9320750028E+00  5.3522136209E+00
                       2.5892572709E+00  7.0147384209E+00  2.1412962465E+00
                       1.1811668939E+00  1.1675411671E-01  4.5463557813E+00
                       6.1148356505E+00  4.1403534344E+00  5.5769279279E+00
                       4.7058918256E+00  3.8452784190E+00  2.8209779699E+00
                       1.1523304104E+00  2.0230779975E+00  6.9812882299E+00
                       5.7171405457E+00  6.3478663168E+00  3.7092500450E+00
                       2.1976850373E+00  4.8057171087E+00  4.0123751204E+00
                       4.6681531011E+00  1.9636626016E+00  3.8949121616E-01
                       5.8150180784E-02 -5.5392342151E-01  1.0007473481E+00
                       3.5860457246E+00  4.5278374724E+00  6.3544998654E+00
            xcart      1.1581213614E+01  1.2412013962E+01  1.1708963836E+01
                       4.9274590562E+00  8.6451284774E+00  2.8826220694E+00
                       1.6592783190E+00  4.9799473833E+00  8.4371151909E+00
                       8.3090126211E+00  2.5160550420E+00  5.4786658565E+00
                       2.1456383321E+00  1.7594913394E+00  2.6507112595E+00
                       8.8117313606E+00  5.7395034418E+00  1.1262168959E+01
                       1.1067515584E+01  9.7763041102E+00  4.5314534146E+00
                       4.4139160994E+00  1.1289242871E+01  1.0069891902E+01
                       4.2510387656E+00  4.3689254170E+00  4.3455580288E+00
                       1.0911689425E+01  3.1276070685E+00  9.5921344092E+00
                       9.1038988826E+00  1.0726380797E+01  1.8795105686E+00
                       2.4491081061E+00  1.0330197369E+01  1.2719061861E+01
                       1.2965965541E+01  2.9574706625E+00  4.7493220047E+00
                       6.3133990624E+00  4.5415719132E+00  9.1780783011E+00
                       5.8447179996E-01  7.9812863175E+00  4.4805596170E+00
                       7.2359821591E+00  1.3099723288E+01  1.0114217948E+01
                       4.8929871296E+00  1.3255934509E+01  4.0464634752E+00
                       2.2320819467E+00  2.2063330547E-01  8.5913673294E+00
                       1.1555364727E+01  7.8241340843E+00  1.0538866447E+01
                       8.8928467614E+00  7.2665231167E+00  5.3308757901E+00
                       2.1775888903E+00  3.8230633607E+00  1.3192722809E+01
                       1.0803829895E+01  1.1995728867E+01  7.0094667434E+00
                       4.1530228468E+00  9.0814892077E+00  7.5822901199E+00
                       8.8215309074E+00  3.7107845344E+00  7.3603172972E-01
                       1.0988791626E-01 -1.0467635653E+00  1.8911384161E+00
                       6.7766443195E+00  8.5563727971E+00  1.2008264457E+01
             xred      8.6959784685E-01  8.7141337099E-01  8.1867071981E-01
                       3.7008130063E-01  6.2736140494E-01  1.8063785248E-01
                       1.2437140993E-01  3.3511453090E-01  6.0491892490E-01
                       6.2396347729E-01  1.6465678278E-01  3.9522940529E-01
                       1.6108932480E-01  1.1969276508E-01  1.8926568216E-01
                       6.6154149039E-01  3.8031829576E-01  8.1062262796E-01
                       8.3124753978E-01  7.0456224400E-01  2.9806307159E-01
                       3.3126890467E-01  7.9478764568E-01  7.0197124404E-01
                       3.1919470514E-01  3.0586307630E-01  3.0472125190E-01
                       8.1932565091E-01  1.9390186524E-01  6.9686337752E-01
                       6.8384692542E-01  7.8499375685E-01  9.8598559426E-02
                       1.8358134362E-01  7.1367468306E-01  9.0140120896E-01
                       9.7380416436E-01  2.0011986706E-01  3.3951950354E-01
                       4.7394253184E-01  2.9990156815E-01  6.6115162445E-01
                       4.3792688057E-02  5.7210696186E-01  3.0135917800E-01
                       5.4326076688E-01  9.2835228699E-01  6.9839916754E-01
                       3.6747806432E-01  9.6338689195E-01  2.4946297390E-01
                       1.6736487851E-01 -1.6983291743E-02  6.3404197863E-01
                       8.6767036894E-01  5.3710490748E-01  7.4929988434E-01
                       6.6785192986E-01  5.1608500300E-01  3.6657658689E-01
                       1.6313103472E-01  2.3124544503E-01  9.6067550311E-01
                       8.1136643665E-01  8.5887490476E-01  4.7293489163E-01
                       3.1174605182E-01  6.4137014729E-01  5.2636556863E-01
                       6.6263553524E-01  2.7127852749E-01  4.0254603393E-02
                       8.1817705537E-03 -8.4638035154E-02  1.4366257478E-01
                       5.0866385885E-01  5.8545439426E-01  8.5533203514E-01
            znucl       57.00000   42.00000    8.00000
 
================================================================================
 
 chkinp: Checking input parameters for consistency, jdtset=   1.
 
================================================================================
== DATASET  1 ==================================================================
-   mpi_nproc: 30, omp_nthreads: 1 (-1 if OMP is not activated)
 

--- !DatasetInfo
iteration_state: {dtset: 1, }
dimensions: {natom: 26, nkpt: 4, mband: 104, nsppol: 1, nspinor: 1, nspden: 1, mpw: 1412, }
cutoff_energies: {ecut:  30.0, pawecutdg:  30.0, }
electrons: {nelect:   2.08000000E+02, charge:   0.00000000E+00, occopt:   1.00000000E+00, tsmear:   1.00000000E-02, }
meta: {optdriver: 0, ionmov: 2, optcell: 2, iscf: 7, paral_kgb: 1, }
...

 Real(R)+Recip(G) space primitive vectors, cartesian coordinates (Bohr,Bohr^-1):
 R(1)= 13.3127157 -0.0010403  0.0062270  G(1)=  0.0751162  0.0000059 -0.0000351
 R(2)= -0.0007402 13.5757778  0.6848206  G(2)=  0.0000076  0.0738561 -0.0038754
 R(3)=  0.0062903  0.7118911 13.5668551  G(3)= -0.0000349 -0.0037281  0.0739047
 Unit cell volume ucvol=  2.4454534E+03 bohr^3
 Angles (23,13,12)=  8.41084886E+01  8.99469424E+01  9.00062414E+01 degrees
 
 Coarse grid specifications (used for wave-functions):
 
 getcut: wavevector=  0.0000  0.0000  0.0000  ngfft=  72  75  75
         ecut(hartree)=     32.448   => boxcut(ratio)=   2.10915
 
 Fine grid specifications (used for densities):
 
 getcut: wavevector=  0.0000  0.0000  0.0000  ngfft=  72  75  75
         ecut(hartree)=     32.448   => boxcut(ratio)=   2.10915
 
--- Pseudopotential description ------------------------------------------------
- pspini: atom type   1  psp file is ~/ABINIT_PAW_PBE/paw_pbe_standard/La.xml
- pspatm: opening atomic psp file    ~/ABINIT_PAW_PBE/paw_pbe_standard/La.xml
- pspatm : Reading pseudopotential header in XML form from ~/ABINIT_PAW_PBE/paw_pbe_standard/La.xml
 Pseudopotential format is: paw10
 basis_size (lnmax)=  8 (lmn_size= 32), orbitals=   0   0   1   1   2   2   3   3
 Spheres core radius: rc_sph= 2.51647158
 1 radial meshes are used:
  - mesh 1: r(i)=AA*[exp(BB*(i-1))-1], size=1500 , AA= 0.15403E-03 BB= 0.87795E-02
 Shapefunction is SIN type: shapef(r)=[sin(pi*r/rshp)/(pi*r/rshp)]**2
 Radius for shape functions =  2.30494653
 mmax= 1500
 Radial grid used for partial waves is grid 1
 Radial grid used for projectors is grid 1
 Radial grid used for (t)core density is grid 1
 Radial grid used for Vloc is grid 1
 Radial grid used for pseudo valence density is grid 1
 Mesh size for Vloc has been set to 1342 to avoid numerical noise.
 Compensation charge density is not taken into account in XC energy/potential
 pspatm: atomic psp has been read  and splines computed
 
- pspini: atom type   2  psp file is ~/ABINIT_PAW_PBE/paw_pbe_standard/Mo.xml
- pspatm: opening atomic psp file    ~/ABINIT_PAW_PBE/paw_pbe_standard/Mo.xml
- pspatm : Reading pseudopotential header in XML form from ~/ABINIT_PAW_PBE/paw_pbe_standard/Mo.xml
 Pseudopotential format is: paw10
 basis_size (lnmax)=  6 (lmn_size= 18), orbitals=   0   0   1   1   2   2
 Spheres core radius: rc_sph= 2.20000000
 1 radial meshes are used:
  - mesh 1: r(i)=AA*[exp(BB*(i-1))-1], size= 846 , AA= 0.34789E-03 BB= 0.14611E-01
 Shapefunction is SIN type: shapef(r)=[sin(pi*r/rshp)/(pi*r/rshp)]**2
 Radius for shape functions =  1.90088266
 mmax=  846
 Radial grid used for partial waves is grid 1
 Radial grid used for projectors is grid 1
 Radial grid used for (t)core density is grid 1
 Radial grid used for Vloc is grid 1
 Radial grid used for pseudo valence density is grid 1
 Mesh size for Vloc has been set to  751 to avoid numerical noise.
 Compensation charge density is not taken into account in XC energy/potential
 pspatm: atomic psp has been read  and splines computed
 
- pspini: atom type   3  psp file is ~/ABINIT_PAW_PBE/paw_pbe_standard/O.xml
- pspatm: opening atomic psp file    ~/ABINIT_PAW_PBE/paw_pbe_standard/O.xml
- pspatm : Reading pseudopotential header in XML form from ~/ABINIT_PAW_PBE/paw_pbe_standard/O.xml
 Pseudopotential format is: paw10
 basis_size (lnmax)=  4 (lmn_size=  8), orbitals=   0   0   1   1
 Spheres core radius: rc_sph= 1.41465230
 1 radial meshes are used:
  - mesh 1: r(i)=AA*[exp(BB*(i-1))-1], size=2001 , AA= 0.72565E-03 BB= 0.58052E-02
 Shapefunction is SIN type: shapef(r)=[sin(pi*r/rshp)/(pi*r/rshp)]**2
 Radius for shape functions =  1.20231231
 mmax= 2001
 Radial grid used for partial waves is grid 1
 Radial grid used for projectors is grid 1
 Radial grid used for (t)core density is grid 1
 Radial grid used for Vloc is grid 1
 Radial grid used for pseudo valence density is grid 1
 Mesh size for Vloc has been set to 1762 to avoid numerical noise.
 Compensation charge density is not taken into account in XC energy/potential
 pspatm: atomic psp has been read  and splines computed
 
   8.97881771E+04                                ecore*ucvol(ha*bohr**3)
--------------------------------------------------------------------------------
 
_setup2: Arith. and geom. avg. npw (full set) are    1411.250    1411.249
 
================================================================================
 
=== [ionmov= 2] Broyden-Fletcher-Goldfard-Shanno method (forces)            
================================================================================
 
--- Iteration: (  1/150) Internal Cycle: (1/1)
--------------------------------------------------------------------------------
 
---SELF-CONSISTENT-FIELD CONVERGENCE--------------------------------------------

--- !BeginCycle
iteration_state: {dtset: 1, itime: 1, icycle: 1, }
solver: {iscf: 7, nstep: 100, nline: 4, wfoptalg: 114, }
tolerances: {tolvrs: 1.00E-20, }
...
 
     iter   Etot(hartree)      deltaE(h)  residm     vres2
 ETOT  1  -689.11859986243    -6.891E+02 1.489E-02 2.392E+04
 ETOT  2  -685.57942756425     3.539E+00 3.386E-04 4.804E+04
 ETOT  3  -693.59729219432    -8.018E+00 1.052E-03 3.154E+03
 ETOT  4  -694.26153056072    -6.642E-01 2.256E-05 6.489E+02
 ETOT  5  -694.16716152203     9.437E-02 7.058E-05 7.625E+02
 ETOT  6  -694.30807184346    -1.409E-01 6.190E-06 2.198E+02
 ETOT  7  -694.35029893954    -4.223E-02 2.989E-06 4.513E+01
 ETOT  8  -694.35803027568    -7.731E-03 9.040E-07 1.032E+01
 ETOT  9  -694.36022603434    -2.196E-03 3.691E-07 7.406E-01
 ETOT 10  -694.36022278381     3.251E-06 1.472E-07 5.150E-01
 ETOT 11  -694.36032514617    -1.024E-04 6.042E-08 9.386E-02
 ETOT 12  -694.36034802845    -2.288E-05 9.666E-09 7.912E-03
 ETOT 13  -694.36034845992    -4.315E-07 2.383E-09 5.259E-03
 ETOT 14  -694.36034951812    -1.058E-06 3.076E-10 6.840E-04
 ETOT 15  -694.36034956738    -4.926E-08 2.268E-10 4.733E-04
 ETOT 16  -694.36034963952    -7.215E-08 1.052E-10 4.214E-05
 ETOT 17  -694.36034964207    -2.543E-09 3.034E-11 5.442E-05
 ETOT 18  -694.36034965186    -9.798E-09 5.051E-12 6.623E-06
 ETOT 19  -694.36034965283    -9.622E-10 2.358E-12 2.259E-06
 ETOT 20  -694.36034965321    -3.791E-10 1.451E-12 4.947E-07
 ETOT 21  -694.36034965330    -9.413E-11 1.095E-13 2.024E-07
 ETOT 22  -694.36034965333    -2.876E-11 4.672E-14 4.357E-08
 ETOT 23  -694.36034965334    -9.322E-12 9.926E-15 1.134E-08
 ETOT 24  -694.36034965334    -1.137E-13 4.184E-15 3.814E-09
 ETOT 25  -694.36034965334    -9.095E-13 1.410E-15 1.544E-09
 ETOT 26  -694.36034965334    -5.684E-13 2.997E-16 4.018E-10
 ETOT 27  -694.36034965334     2.274E-13 1.216E-16 7.696E-11
 ETOT 28  -694.36034965334    -2.274E-13 2.036E-17 3.040E-11
 ETOT 29  -694.36034965334     3.411E-13 1.243E-17 3.224E-12
 ETOT 30  -694.36034965334     2.274E-13 1.237E-18 1.368E-12
 ETOT 31  -694.36034965334    -1.137E-13 2.024E-19 3.102E-13
 ETOT 32  -694.36034965334    -3.411E-13 1.953E-19 1.062E-13
 ETOT 33  -694.36034965334     5.684E-13 3.210E-20 5.637E-14
 ETOT 34  -694.36034965334    -7.958E-13 2.003E-20 1.722E-14
 ETOT 35  -694.36034965334     2.274E-13 4.847E-21 4.534E-15
 ETOT 36  -694.36034965334     4.547E-13 1.374E-21 4.122E-16
 ETOT 37  -694.36034965334     2.274E-13 4.188E-22 3.999E-16
 ETOT 38  -694.36034965334    -4.547E-13 1.077E-22 1.974E-17
 ETOT 39  -694.36034965334    -2.274E-13 6.921E-24 3.144E-17
 ETOT 40  -694.36034965334     6.821E-13 2.650E-24 2.101E-18
 ETOT 41  -694.36034965334    -2.274E-13 1.811E-25 1.141E-18
 ETOT 42  -694.36034965334    -2.274E-13 2.044E-25 3.858E-19
 ETOT 43  -694.36034965334     0.000E+00 4.299E-26 1.292E-19
 ETOT 44  -694.36034965334    -2.274E-13 1.999E-26 3.353E-20
 ETOT 45  -694.36034965334     1.137E-13 3.929E-27 1.232E-20
 ETOT 46  -694.36034965334     0.000E+00 1.709E-27 2.792E-21
 
 At SCF step   46       vres2   =  2.79E-21 < tolvrs=  1.00E-20 =>converged.
 
 Cartesian components of stress tensor (hartree/bohr^3)
  sigma(1 1)= -9.89520965E-14  sigma(3 2)=  9.92292186E-14
  sigma(2 2)= -3.30308697E-14  sigma(3 1)=  1.17407619E-13
  sigma(3 3)=  3.41671136E-14  sigma(2 1)=  5.47513627E-15
 

--- !ResultsGS
iteration_state: {dtset: 1, itime: 1, icycle: 1, }
comment   : Summary of ground state results
lattice_vectors:
- [ 13.3127157,  -0.0010403,   0.0062270, ]
- [ -0.0007402,  13.5757778,   0.6848206, ]
- [  0.0062903,   0.7118911,  13.5668551, ]
lattice_lengths: [  13.31272,   13.59304,   13.58552, ]
lattice_angles: [ 84.108,  89.947,  90.006, ] # degrees, (23, 13, 12)
lattice_volume:   2.4454534E+03
convergence: {deltae:  0.000E+00, res2:  2.792E-21, residm:  1.709E-27, diffor: null, }
etotal    :  -6.94360350E+02
entropy   :   0.00000000E+00
fermie    :   1.18712516E-01
cartesian_stress_tensor: # hartree/bohr^3
- [ -9.89520965E-14,   5.47513627E-15,   1.17407619E-13, ]
- [  5.47513627E-15,  -3.30308697E-14,   9.92292186E-14, ]
- [  1.17407619E-13,   9.92292186E-14,   3.41671136E-14, ]
pressure_GPa:   9.5928E-10
xred      :
- [  8.6960E-01,   8.7141E-01,   8.1867E-01, La]
- [  3.7008E-01,   6.2736E-01,   1.8064E-01, La]
- [  1.2437E-01,   3.3511E-01,   6.0492E-01, La]
- [  6.2396E-01,   1.6466E-01,   3.9523E-01, La]
- [  1.6109E-01,   1.1969E-01,   1.8927E-01, Mo]
- [  6.6154E-01,   3.8032E-01,   8.1062E-01, Mo]
- [  8.3125E-01,   7.0456E-01,   2.9806E-01, Mo]
- [  3.3127E-01,   7.9479E-01,   7.0197E-01, Mo]
- [  3.1919E-01,   3.0586E-01,   3.0472E-01,  O]
- [  8.1933E-01,   1.9390E-01,   6.9686E-01,  O]
- [  6.8385E-01,   7.8499E-01,   9.8599E-02,  O]
- [  1.8358E-01,   7.1367E-01,   9.0140E-01,  O]
- [  9.7380E-01,   2.0012E-01,   3.3952E-01,  O]
- [  4.7394E-01,   2.9990E-01,   6.6115E-01,  O]
- [  4.3793E-02,   5.7211E-01,   3.0136E-01,  O]
- [  5.4326E-01,   9.2835E-01,   6.9840E-01,  O]
- [  3.6748E-01,   9.6339E-01,   2.4946E-01,  O]
- [  1.6736E-01,  -1.6983E-02,   6.3404E-01,  O]
- [  8.6767E-01,   5.3710E-01,   7.4930E-01,  O]
- [  6.6785E-01,   5.1609E-01,   3.6658E-01,  O]
- [  1.6313E-01,   2.3125E-01,   9.6068E-01,  O]
- [  8.1137E-01,   8.5887E-01,   4.7293E-01,  O]
- [  3.1175E-01,   6.4137E-01,   5.2637E-01,  O]
- [  6.6264E-01,   2.7128E-01,   4.0255E-02,  O]
- [  8.1818E-03,  -8.4638E-02,   1.4366E-01,  O]
- [  5.0866E-01,   5.8545E-01,   8.5533E-01,  O]
cartesian_forces: # hartree/bohr
- [ -2.95919579E-12,  -1.83105155E-12,  -2.44199708E-11, ]
- [  1.36688825E-11,   1.07544267E-11,  -7.94991756E-12, ]
- [ -3.74243851E-11,   4.53747771E-12,   7.40887411E-12, ]
- [  2.44968502E-11,  -5.25333167E-11,   3.02318118E-11, ]
- [  1.06911395E-11,  -4.20606773E-12,  -3.75208170E-11, ]
- [  2.69852689E-11,  -3.12109476E-11,  -4.03066939E-11, ]
- [ -2.39478504E-11,  -2.63311364E-12,   3.95370350E-11, ]
- [  1.32911663E-11,  -7.06913292E-11,  -1.82804543E-11, ]
- [ -3.30109841E-12,  -2.95798694E-11,  -1.01477430E-11, ]
- [ -3.03024799E-11,   1.59518431E-11,  -4.06538507E-11, ]
- [ -4.82139736E-11,  -1.30949656E-12,  -1.12044395E-11, ]
- [  3.42400147E-11,   3.91821377E-11,  -5.74307385E-12, ]
- [  7.74984255E-12,  -5.97408048E-11,  -3.66877003E-11, ]
- [  2.69537452E-11,   3.20049554E-11,   4.40105765E-11, ]
- [  1.53859401E-11,  -4.75660722E-11,  -3.37106024E-11, ]
- [ -2.78938875E-11,   2.64264789E-11,   3.53331658E-11, ]
- [ -2.04135244E-11,   1.39607202E-11,  -2.76240100E-11, ]
- [  2.41035795E-11,   1.63075489E-11,   2.54290386E-12, ]
- [  4.03700071E-11,   1.68947622E-11,   1.02718696E-11, ]
- [ -4.34470657E-11,  -3.65969236E-11,   9.81533215E-12, ]
- [ -2.58642914E-12,  -1.45017239E-11,   6.75187636E-11, ]
- [ -1.76237927E-11,  -7.07228843E-12,   3.83738112E-12, ]
- [  3.33235908E-11,   6.93132442E-11,   2.01398691E-11, ]
- [ -2.08390303E-11,   1.90556946E-11,  -6.39896715E-15, ]
- [  5.15301405E-11,   3.20954241E-11,   7.41816828E-12, ]
- [ -4.38374548E-11,   6.29882916E-11,   1.61899212E-11, ]
force_length_stats: {min:   1.91232118E-11, max:   7.95009550E-11, mean:   4.99978569E-11, }
...

 Integrated electronic density in atomic spheres:
 ------------------------------------------------
 Atom  Sphere_radius  Integrated_density
    1        2.51647          7.88191368
    2        2.51647          7.87706711
    3        2.51647          7.85725173
    4        2.51647          7.85743004
    5        2.20000         11.35305939
    6        2.20000         11.34989475
    7        2.20000         11.49228445
    8        2.20000         11.47684070
    9        1.41465          4.55042904
   10        1.41465          4.56218116
   11        1.41465          4.55670844
   12        1.41465          4.57276303
   13        1.41465          4.56019621
   14        1.41465          4.56696186
   15        1.41465          4.56912460
   16        1.41465          4.57686856
   17        1.41465          4.53686369
   18        1.41465          4.56249537
   19        1.41465          4.53331577
   20        1.41465          4.55654076
   21        1.41465          4.53171544
   22        1.41465          4.56914528
   23        1.41465          4.54724989
   24        1.41465          4.53217484
   25        1.41465          4.56003811
   26        1.41465          4.55536513
 
 PAW TEST:
 ==== Compensation charge inside spheres ============
 The following values must be close to each other ...
 Compensation charge over spherical meshes =     21.036970100962431
 Compensation charge over fft grid         =     21.037060089963219
 
 ==== Results concerning PAW augmentation regions ====
 
 Total pseudopotential strength Dij (hartree):
 Atom #  1
   0.47383  -0.11737   0.00001   0.00025   0.00032   0.00001   0.00002   0.00004  -0.00001   0.00001  -0.00000  -0.00003 ...
  -0.11737   0.02312  -0.00000  -0.00005  -0.00006  -0.00000   0.00002   0.00002   0.00001   0.00000  -0.00000   0.00000 ...
   0.00001  -0.00000  -0.18052  -0.00002  -0.00003   0.04283   0.00016   0.00008   0.00009   0.00007  -0.00001   0.00001 ...
   0.00025  -0.00005  -0.00002  -0.18052  -0.00003   0.00016   0.04285  -0.00006   0.00001  -0.00002   0.00009   0.00007 ...
   0.00032  -0.00006  -0.00003  -0.00003  -0.18051   0.00008  -0.00006   0.04290  -0.00000   0.00001  -0.00006   0.00006 ...
   0.00001  -0.00000   0.04283   0.00016   0.00008   0.32003   0.00003   0.00002   0.00005   0.00008  -0.00002   0.00001 ...
   0.00002   0.00002   0.00016   0.04285  -0.00006   0.00003   0.32003  -0.00002   0.00001  -0.00001   0.00002   0.00003 ...
   0.00004   0.00002   0.00008  -0.00006   0.04290   0.00002  -0.00002   0.32005   0.00001   0.00001  -0.00003   0.00001 ...
  -0.00001   0.00001   0.00009   0.00001  -0.00000   0.00005   0.00001   0.00001  -0.05759  -0.00001  -0.00001   0.00001 ...
   0.00001   0.00000   0.00007  -0.00002   0.00001   0.00008  -0.00001   0.00001  -0.00001  -0.05760   0.00000   0.00000 ...
  -0.00000  -0.00000  -0.00001   0.00009  -0.00006  -0.00002   0.00002  -0.00003  -0.00001   0.00000  -0.05759  -0.00001 ...
  -0.00003   0.00000   0.00001   0.00007   0.00006   0.00001   0.00003   0.00001   0.00001   0.00000  -0.00001  -0.05759 ...
   ...  only 12  components have been written...
 Atom # 26
   0.61707  -1.76996   0.00039   0.00030  -0.00022  -0.00280  -0.00222   0.00159
  -1.76996   5.13518  -0.00100  -0.00079   0.00057   0.00737   0.00595  -0.00418
   0.00039  -0.00100  -0.31110  -0.00008   0.00073   0.97321   0.00040  -0.00380
   0.00030  -0.00079  -0.00008  -0.31045   0.00010   0.00040   0.96985  -0.00053
  -0.00022   0.00057   0.00073   0.00010  -0.31074  -0.00380  -0.00053   0.97133
  -0.00280   0.00737   0.97321   0.00040  -0.00380  -0.29986  -0.00199   0.01898
  -0.00222   0.00595   0.00040   0.96985  -0.00053  -0.00199  -0.28305   0.00267
   0.00159  -0.00418  -0.00380  -0.00053   0.97133   0.01898   0.00267  -0.29047
 
 
 Augmentation waves occupancies Rhoij:
 Atom #  1
   2.02516  -0.08073  -0.00064  -0.00354  -0.00372   0.00012   0.00180   0.00176   0.00624   0.01151  -0.00190  -0.00175 ...
  -0.08073   0.25588   0.00148   0.01445   0.01502  -0.00005  -0.00332  -0.00407  -0.01128  -0.02046   0.00267   0.00005 ...
  -0.00064   0.00148   2.04480  -0.00940  -0.00469  -0.02148   0.00535   0.00271   0.00392   0.04607   0.00009  -0.00581 ...
  -0.00354   0.01445  -0.00940   2.05314   0.00096   0.00533  -0.02495  -0.00073  -0.00238   0.00023  -0.01720   0.01868 ...
  -0.00372   0.01502  -0.00469   0.00096   2.04752   0.00271  -0.00073  -0.02207   0.00466  -0.00896   0.00385   0.00489 ...
   0.00012  -0.00005  -0.02148   0.00533   0.00271   0.01530  -0.00231  -0.00107  -0.00017  -0.01359  -0.00061   0.00215 ...
   0.00180  -0.00332   0.00535  -0.02495  -0.00073  -0.00231   0.01648   0.00002   0.00091  -0.00046   0.00690  -0.00496 ...
   0.00176  -0.00407   0.00271  -0.00073  -0.02207  -0.00107   0.00002   0.01543  -0.00128   0.00332  -0.00178  -0.00105 ...
   0.00624  -0.01128   0.00392  -0.00238   0.00466  -0.00017   0.00091  -0.00128   0.07578   0.00729   0.02191  -0.02690 ...
   0.01151  -0.02046   0.04607   0.00023  -0.00896  -0.01359  -0.00046   0.00332   0.00729   0.08324   0.00858   0.01560 ...
  -0.00190   0.00267   0.00009  -0.01720   0.00385  -0.00061   0.00690  -0.00178   0.02191   0.00858   0.11204  -0.00748 ...
  -0.00175   0.00005  -0.00581   0.01868   0.00489   0.00215  -0.00496  -0.00105  -0.02690   0.01560  -0.00748   0.11294 ...
   ...  only 12  components have been written...
 Atom # 26
   1.99340   0.03106  -0.01244   0.00330   0.00607  -0.00268  -0.00134   0.00140
   0.03106   0.00118  -0.00558  -0.00438   0.00304  -0.00024  -0.00015   0.00015
  -0.01244  -0.00558   1.76342  -0.00140  -0.03277   0.03413  -0.00024  -0.00684
   0.00330  -0.00438  -0.00140   1.74110   0.00114  -0.00022   0.02937  -0.00053
   0.00607   0.00304  -0.03277   0.00114   1.74600  -0.00684  -0.00052   0.03061
  -0.00268  -0.00024   0.03413  -0.00022  -0.00684   0.00092   0.00002  -0.00033
  -0.00134  -0.00015  -0.00024   0.02937  -0.00052   0.00002   0.00064  -0.00003
   0.00140   0.00015  -0.00684  -0.00053   0.03061  -0.00033  -0.00003   0.00075
 
 
 
---OUTPUT-----------------------------------------------------------------------
 
 Cartesian coordinates (xcart) [bohr]
  1.15812136142294E+01  1.24120139623492E+01  1.17089638357755E+01
  4.92745905615152E+00  8.64512847740732E+00  2.88262206936504E+00
  1.65927831896311E+00  4.97994738334691E+00  8.43711519087104E+00
  8.30901262110512E+00  2.51605504200069E+00  5.47866585647467E+00
  2.14563833206134E+00  1.75949133944522E+00  2.65071125948016E+00
  8.81173136058184E+00  5.73950344182588E+00  1.12621689589245E+01
  1.10675155835419E+01  9.77630411016573E+00  4.53145341455276E+00
  4.41391609937766E+00  1.12892428709145E+01  1.00698919017139E+01
  4.25103876560034E+00  4.36892541700709E+00  4.34555802878368E+00
  1.09116894250452E+01  3.12760706853739E+00  9.59213440923713E+00
  9.10389888260371E+00  1.07263807967725E+01  1.87951056864985E+00
  2.44910810606344E+00  1.03301973688605E+01  1.27190618607390E+01
  1.29659655410290E+01  2.95747066246886E+00  4.74932200465594E+00
  6.31339906236363E+00  4.54157191321998E+00  9.17807830114118E+00
  5.84471799960432E-01  7.98128631747097E+00  4.48055961696925E+00
  7.23598215911337E+00  1.30997232878999E+01  1.01142179481780E+01
  4.89298712955540E+00  1.32559345093609E+01  4.04646347522621E+00
  2.23208194671470E+00  2.20633305473393E-01  8.59136732937370E+00
  1.15553647269609E+01  7.82413408433566E+00  1.05388664466601E+01
  8.89284676136698E+00  7.26652311665092E+00  5.33087579010150E+00
  2.17758889026127E+00  3.82306336068666E+00  1.31927228092735E+01
  1.08038298945422E+01  1.19957288668643E+01  7.00946674343438E+00
  4.15302284677968E+00  9.08148920765494E+00  7.58229011992858E+00
  8.82153090736601E+00  3.71078453440612E+00  7.36031729715502E-01
  1.09887916259272E-01 -1.04676356525046E+00  1.89113841605487E+00
  6.77664431951462E+00  8.55637279711855E+00  1.20082644570003E+01
 Reduced coordinates (xred)
  8.69597846850000E-01  8.71413370990000E-01  8.18670719810000E-01
  3.70081300630000E-01  6.27361404940000E-01  1.80637852480000E-01
  1.24371409930000E-01  3.35114530900000E-01  6.04918924900000E-01
  6.23963477290000E-01  1.64656782780000E-01  3.95229405290000E-01
  1.61089324800000E-01  1.19692765080000E-01  1.89265682160000E-01
  6.61541490390000E-01  3.80318295760000E-01  8.10622627960000E-01
  8.31247539780000E-01  7.04562244000000E-01  2.98063071590000E-01
  3.31268904670000E-01  7.94787645680000E-01  7.01971244040000E-01
  3.19194705140000E-01  3.05863076300000E-01  3.04721251900000E-01
  8.19325650910000E-01  1.93901865240000E-01  6.96863377520000E-01
  6.83846925420000E-01  7.84993756850000E-01  9.85985594260000E-02
  1.83581343620000E-01  7.13674683060000E-01  9.01401208960000E-01
  9.73804164360000E-01  2.00119867060000E-01  3.39519503540000E-01
  4.73942531840000E-01  2.99901568150000E-01  6.61151624450000E-01
  4.37926880570000E-02  5.72106961860000E-01  3.01359178000000E-01
  5.43260766880000E-01  9.28352286990000E-01  6.98399167540000E-01
  3.67478064320000E-01  9.63386891950000E-01  2.49462973900000E-01
  1.67364878510000E-01 -1.69832917430000E-02  6.34041978630000E-01
  8.67670368940000E-01  5.37104907480000E-01  7.49299884340000E-01
  6.67851929860000E-01  5.16085003000000E-01  3.66576586890000E-01
  1.63131034720000E-01  2.31245445030000E-01  9.60675503110000E-01
  8.11366436650000E-01  8.58874904760000E-01  4.72934891630000E-01
  3.11746051820000E-01  6.41370147290000E-01  5.26365568630000E-01
  6.62635535240000E-01  2.71278527490000E-01  4.02546033930000E-02
  8.18177055370000E-03 -8.46380351540000E-02  1.43662574780000E-01
  5.08663858850000E-01  5.85454394260000E-01  8.55332035140000E-01
 Cartesian forces (fcart) [Ha/bohr]; max,rms= 7.06913E-11 3.05936E-11 (free atoms)
 -2.95919578852935E-12 -1.83105154573805E-12 -2.44199707748907E-11
  1.36688824897756E-11  1.07544266528714E-11 -7.94991755514633E-12
 -3.74243851478052E-11  4.53747770693541E-12  7.40887411151096E-12
  2.44968501524902E-11 -5.25333166927883E-11  3.02318117922194E-11
  1.06911394816864E-11 -4.20606773151797E-12 -3.75208169723262E-11
  2.69852688507483E-11 -3.12109476447147E-11 -4.03066938558174E-11
 -2.39478503759154E-11 -2.63311363679760E-12  3.95370350465775E-11
  1.32911663344390E-11 -7.06913291806063E-11 -1.82804542665527E-11
 -3.30109840829783E-12 -2.95798694037648E-11 -1.01477430398158E-11
 -3.03024798958514E-11  1.59518431382360E-11 -4.06538506743208E-11
 -4.82139736358714E-11 -1.30949655822608E-12 -1.12044394953115E-11
  3.42400146999483E-11  3.91821377115063E-11 -5.74307384790674E-12
  7.74984254965335E-12 -5.97408047510462E-11 -3.66877002571641E-11
  2.69537451914686E-11  3.20049554350041E-11  4.40105764772634E-11
  1.53859400907504E-11 -4.75660722493317E-11 -3.37106023764726E-11
 -2.78938874527913E-11  2.64264788708574E-11  3.53331658441313E-11
 -2.04135244440877E-11  1.39607201599351E-11 -2.76240100486079E-11
  2.41035794534166E-11  1.63075488646114E-11  2.54290385880910E-12
  4.03700071486515E-11  1.68947622412223E-11  1.02718695518361E-11
 -4.34470657252595E-11 -3.65969236387981E-11  9.81533215436373E-12
 -2.58642914147101E-12 -1.45017238980540E-11  6.75187635598847E-11
 -1.76237926670668E-11 -7.07228843359591E-12  3.83738111849974E-12
  3.33235908383741E-11  6.93132441565813E-11  2.01398690713656E-11
 -2.08390303033405E-11  1.90556945697524E-11 -6.39896715124008E-15
  5.15301405095792E-11  3.20954241374120E-11  7.41816828301570E-12
 -4.38374547843652E-11  6.29882915506477E-11  1.61899212349018E-11
 Reduced forces (fred)
  3.95450908252959E-11  4.15790569430566E-11  3.32624328659706E-10
 -1.81909253911254E-10 -1.40545321909420E-10  1.00113417614977E-10
  4.98178784470493E-10 -6.67012386135451E-11 -1.03509899635861E-10
 -3.26362507203852E-10  6.92495397768295E-10 -3.72906704976053E-10
 -1.42098833265844E-10  8.28035813743622E-11  5.11966498423990E-10
 -3.59028691182359E-10  4.51335715819514E-10  5.68884123510654E-10
  3.18561986296754E-10  8.65306520635481E-12 -5.34368095757734E-10
 -1.76901228172711E-10  9.72218443743056E-10  2.98249193514479E-10
  4.39790018869945E-11  4.08516673207367E-10  1.58751368947698E-10
  4.03678046745466E-10 -1.88740512937826E-10  5.40379539581108E-10
  6.41927330980859E-10  2.54147786190270E-11  1.53244507813306E-10
 -4.55751056200621E-10 -5.27969675561507E-10  4.98066563192243E-11
 -1.03005145743718E-10  8.36158116916947E-10  5.40216909051406E-10
 -3.59068305210470E-10 -4.64611560352636E-10 -6.20038703571004E-10
 -2.04668213949038E-10  6.68843528215532E-10  4.91111936712861E-10
  3.71150865106975E-10 -3.82977529244627E-10 -4.97997253580569E-10
  2.71945985949009E-10 -1.70625253339073E-10  3.64960837651270E-10
 -3.20882969731258E-10 -2.23111251531897E-10 -4.62600258549788E-11
 -5.37480814345724E-10 -2.36364044700603E-10 -1.51638136649835E-10
  5.78299240261095E-10  4.90077802827035E-10 -1.06836870099985E-10
  3.39968688449109E-11  1.50632028135976E-10 -9.05677364898347E-10
  2.34589288128595E-10  9.33708540126589E-11 -4.69156352554763E-11
 -4.43680793075458E-10 -9.54748730597101E-10 -3.22787780525040E-10
  2.77443949641515E-10 -2.58706916834775E-10 -1.33476803294225E-11
 -6.86018913044395E-10 -4.40762318813191E-10 -1.23813801215058E-10
  5.83560285628101E-10 -8.66234686034576E-10 -2.64211364963114E-10
 Scale of Primitive Cell (acell) [bohr]
  1.00000000000000E+00  1.00000000000000E+00  1.00000000000000E+00
 Real space primitive translations (rprimd) [bohr]
  1.33127156852902E+01 -1.04032993691010E-03  6.22701536530617E-03
 -7.40165376726884E-04  1.35757777657207E+01  6.84820572840264E-01
  6.29032950156358E-03  7.11891057395841E-01  1.35668551029860E+01
 Unitary Cell Volume (ucvol) [Bohr^3]=  2.44545336005313E+03
 Angles (23,13,12)= [degrees]
  8.41084885753416E+01  8.99469424420244E+01  9.00062413896852E+01
 Lengths [Bohr]
  1.33127171822802E+01  1.35930394580854E+01  1.35855211836448E+01
 Stress tensor in cartesian coordinates (strten) [Ha/bohr^3]
 -9.89520965166690E-14  5.47513626775707E-15  1.17407619148415E-13
  5.47513626775707E-15 -3.30308697060744E-14  9.92292185919563E-14
  1.17407619148415E-13  9.92292185919563E-14  3.41671135828392E-14
 Total energy (etotal) [Ha]= -6.94360349653340E+02
 
 At Broyd/MD step   1, gradients are converged : 
  max grad (force/stress) = 7.0691E-11 < tolmxf= 1.0000E-08 ha/bohr (free atoms)
 
================================================================================
 
 ----iterations are completed or convergence reached----
 
 Mean square residual over all n,k,spin=   32.139E-29; max=  17.089E-28
 reduced coordinates (array xred) for   26 atoms
       0.869597846850      0.871413370990      0.818670719810
       0.370081300630      0.627361404940      0.180637852480
       0.124371409930      0.335114530900      0.604918924900
       0.623963477290      0.164656782780      0.395229405290
       0.161089324800      0.119692765080      0.189265682160
       0.661541490390      0.380318295760      0.810622627960
       0.831247539780      0.704562244000      0.298063071590
       0.331268904670      0.794787645680      0.701971244040
       0.319194705140      0.305863076300      0.304721251900
       0.819325650910      0.193901865240      0.696863377520
       0.683846925420      0.784993756850      0.098598559426
       0.183581343620      0.713674683060      0.901401208960
       0.973804164360      0.200119867060      0.339519503540
       0.473942531840      0.299901568150      0.661151624450
       0.043792688057      0.572106961860      0.301359178000
       0.543260766880      0.928352286990      0.698399167540
       0.367478064320      0.963386891950      0.249462973900
       0.167364878510     -0.016983291743      0.634041978630
       0.867670368940      0.537104907480      0.749299884340
       0.667851929860      0.516085003000      0.366576586890
       0.163131034720      0.231245445030      0.960675503110
       0.811366436650      0.858874904760      0.472934891630
       0.311746051820      0.641370147290      0.526365568630
       0.662635535240      0.271278527490      0.040254603393
       0.008181770554     -0.084638035154      0.143662574780
       0.508663858850      0.585454394260      0.855332035140
 rms dE/dt=  3.9400E-04; max dE/dt=  6.0064E-04; dE/dt below (all hartree)
    1      -0.000299741495      0.000600636765      0.000122846101
    2      -0.000299741717      0.000600636583      0.000122845869
    3      -0.000299741037      0.000600636657      0.000122845665
    4      -0.000299741861      0.000600637416      0.000122845396
    5      -0.000299741677      0.000600636806      0.000122846281
    6      -0.000299741894      0.000600637175      0.000122846338
    7      -0.000299741216      0.000600636732      0.000122845234
    8      -0.000299741712      0.000600637696      0.000122846067
    9      -0.000299741491      0.000600637132      0.000122845927
   10      -0.000299741131      0.000600636535      0.000122846309
   11      -0.000299740893      0.000600636749      0.000122845922
   12      -0.000299741991      0.000600636195      0.000122845818
   13      -0.000299741638      0.000600637560      0.000122846309
   14      -0.000299741894      0.000600636259      0.000122845149
   15      -0.000299741739      0.000600637392      0.000122846260
   16      -0.000299741164      0.000600636340      0.000122845271
   17      -0.000299741263      0.000600636553      0.000122846134
   18      -0.000299741856      0.000600636500      0.000122845722
   19      -0.000299742072      0.000600636487      0.000122845617
   20      -0.000299740956      0.000600637214      0.000122845662
   21      -0.000299741501      0.000600636874      0.000122844863
   22      -0.000299741300      0.000600636817      0.000122845722
   23      -0.000299741978      0.000600635769      0.000122845446
   24      -0.000299741257      0.000600636465      0.000122845755
   25      -0.000299742221      0.000600636283      0.000122845645
   26      -0.000299740951      0.000600635857      0.000122845504
 
 cartesian coordinates (angstrom) at end:
    1      6.12851429246244     6.56815490157604     6.19611679809695
    2      2.60749902877578     4.57480495557632     1.52541790008652
    3      0.87805226910281     2.63527465524459     4.46472906525742
    4      4.39694010497549     1.33143898378472     2.89918510472661
    5      1.13542290320392     0.93108271554590     1.40269598506979
    6      4.66296740423766     3.03721441003811     5.95968313235261
    7      5.85667700252502     5.17339731934444     2.39794186876865
    8      2.33574380041913     5.97401002952507     5.32875728735200
    9      2.24955282758827     2.31193575670971     2.29957026743761
   10      5.77421735094644     1.65505837809497     5.07593891110019
   11      4.81757579798185     5.67615624830945     0.99459415623353
   12      1.29601219110179     5.46650500783737     6.73063765134938
   13      6.86129345167584     1.56502606965209     2.51323296111889
   14      3.34090689253631     2.40329634764850     4.85682985561834
   15      0.30928915560263     4.22351481443685     2.37101003102887
   16      3.82911684036665     6.93207500279228     5.35221362088772
   17      2.58925727088492     7.01473842091545     2.14129624648160
   18      1.18116689390662     0.11675411671240     4.54635578132930
   19      6.11483565045250     4.14035343438262     5.57692792794642
   20      4.70589182559880     3.84527841902404     2.82097796994592
   21      1.15233041040505     2.02307799747087     6.98128822991295
   22      5.71714054567502     6.34786631676974     3.70925004499504
   23      2.19768503726936     4.80571710874705     4.01237512038334
   24      4.66815310105036     1.96366260159597     0.38949121616452
   25      0.05815018078385    -0.55392342151296     1.00074734806523
   26      3.58604572460803     4.52783747243461     6.35449986536595
 
 cartesian forces (hartree/bohr) at end:
    1     -0.00000000000296    -0.00000000000183    -0.00000000002442
    2      0.00000000001367     0.00000000001075    -0.00000000000795
    3     -0.00000000003742     0.00000000000454     0.00000000000741
    4      0.00000000002450    -0.00000000005253     0.00000000003023
    5      0.00000000001069    -0.00000000000421    -0.00000000003752
    6      0.00000000002699    -0.00000000003121    -0.00000000004031
    7     -0.00000000002395    -0.00000000000263     0.00000000003954
    8      0.00000000001329    -0.00000000007069    -0.00000000001828
    9     -0.00000000000330    -0.00000000002958    -0.00000000001015
   10     -0.00000000003030     0.00000000001595    -0.00000000004065
   11     -0.00000000004821    -0.00000000000131    -0.00000000001120
   12      0.00000000003424     0.00000000003918    -0.00000000000574
   13      0.00000000000775    -0.00000000005974    -0.00000000003669
   14      0.00000000002695     0.00000000003200     0.00000000004401
   15      0.00000000001539    -0.00000000004757    -0.00000000003371
   16     -0.00000000002789     0.00000000002643     0.00000000003533
   17     -0.00000000002041     0.00000000001396    -0.00000000002762
   18      0.00000000002410     0.00000000001631     0.00000000000254
   19      0.00000000004037     0.00000000001689     0.00000000001027
   20     -0.00000000004345    -0.00000000003660     0.00000000000982
   21     -0.00000000000259    -0.00000000001450     0.00000000006752
   22     -0.00000000001762    -0.00000000000707     0.00000000000384
   23      0.00000000003332     0.00000000006931     0.00000000002014
   24     -0.00000000002084     0.00000000001906    -0.00000000000001
   25      0.00000000005153     0.00000000003210     0.00000000000742
   26     -0.00000000004384     0.00000000006299     0.00000000001619
 frms,max,avg= 3.0593560E-11 7.0691329E-11   2.252E-05 -4.390E-05 -6.762E-06 h/b
 
 cartesian forces (eV/Angstrom) at end:
    1     -0.00000000015217    -0.00000000009416    -0.00000000125573
    2      0.00000000070288     0.00000000055301    -0.00000000040880
    3     -0.00000000192444     0.00000000023333     0.00000000038098
    4      0.00000000125968    -0.00000000270137     0.00000000155458
    5      0.00000000054976    -0.00000000021628    -0.00000000192940
    6      0.00000000138764    -0.00000000160493    -0.00000000207265
    7     -0.00000000123145    -0.00000000013540     0.00000000203308
    8      0.00000000068346    -0.00000000363509    -0.00000000094002
    9     -0.00000000016975    -0.00000000152106    -0.00000000052182
   10     -0.00000000155822     0.00000000082028    -0.00000000209050
   11     -0.00000000247926    -0.00000000006734    -0.00000000057616
   12      0.00000000176069     0.00000000201483    -0.00000000029532
   13      0.00000000039851    -0.00000000307200    -0.00000000188656
   14      0.00000000138602     0.00000000164576     0.00000000226311
   15      0.00000000079118    -0.00000000244595    -0.00000000173347
   16     -0.00000000143436     0.00000000135890     0.00000000181690
   17     -0.00000000104971     0.00000000071789    -0.00000000142048
   18      0.00000000123946     0.00000000083857     0.00000000013076
   19      0.00000000207591     0.00000000086876     0.00000000052820
   20     -0.00000000223414    -0.00000000188189     0.00000000050472
   21     -0.00000000013300    -0.00000000074571     0.00000000347195
   22     -0.00000000090625    -0.00000000036367     0.00000000019733
   23      0.00000000171357     0.00000000356423     0.00000000103563
   24     -0.00000000107159     0.00000000097988    -0.00000000000033
   25      0.00000000264979     0.00000000165041     0.00000000038146
   26     -0.00000000225421     0.00000000323899     0.00000000083252
 frms,max,avg= 1.5731840E-09 3.6350940E-09   1.158E-03 -2.257E-03 -3.477E-04 e/A
 length scales=  1.000000000000  1.000000000000  1.000000000000 bohr
              =  0.529177208590  0.529177208590  0.529177208590 angstroms
 Fermi (or HOMO) energy (hartree) =   0.11871   Average Vxc (hartree)=  -0.38802
 Eigenvalues (hartree) for nkpt=   4  k points:
 kpt#   1, nband=104, wtk=  0.25000, kpt=  0.2500  0.2500  0.2500 (reduced coord)
  -2.13347   -2.13328   -2.12644   -2.12617   -1.19254   -1.19235   -1.19112   -1.19091
  -1.18516   -1.18495   -1.18401   -1.18375   -1.17783   -1.17755   -1.17722   -1.17695
  -0.98100   -0.98032   -0.97653   -0.97557   -0.52931   -0.52561   -0.51526   -0.51113
  -0.50549   -0.50110   -0.49749   -0.49596   -0.49275   -0.48872   -0.48348   -0.48092
  -0.47806   -0.47608   -0.47367   -0.46897   -0.46702   -0.46316   -0.38065   -0.37965
  -0.37656   -0.37360   -0.36942   -0.36792   -0.36360   -0.35903   -0.35626   -0.35320
  -0.34719   -0.33866   -0.06583   -0.06163   -0.05928   -0.05597   -0.05142   -0.04686
  -0.04407   -0.04159   -0.03898   -0.03459   -0.02891   -0.02638   -0.02430   -0.01896
  -0.01787   -0.01650   -0.01150   -0.00989   -0.00919   -0.00144    0.00396    0.00959
   0.01157    0.02322    0.02670    0.02874    0.03104    0.03516    0.03968    0.04240
   0.04880    0.05030    0.05399    0.05543    0.05833    0.06137    0.06343    0.06820
   0.07029    0.07446    0.07698    0.08142    0.08442    0.08832    0.08976    0.09329
   0.09438    0.09630    0.09865    0.09999    0.10379    0.10733    0.11391    0.11543
 prteigrs : prtvol=0 or 1, do not print more k-points.
 

--- !EnergyTerms
iteration_state     : {dtset: 1, itime: 1, icycle: 1, }
comment             : Components of total free energy in Hartree
kinetic             :  2.14123890448509E+02
hartree             :  1.85175693864226E+02
xc                  : -9.12553587230280E+01
Ewald energy        : -5.05846026162625E+02
psp_core            :  3.67163727520570E+01
local_psp           : -5.77760715571815E+02
spherical_terms     :  4.44857937393355E+01
total_energy        : -6.94360349653339E+02
total_energy_eV     : -1.88945060115808E+04
...


--- !EnergyTermsDC
iteration_state     : {dtset: 1, itime: 1, icycle: 1, }
comment             : '"Double-counting" decomposition of free energy'
band_energy         : -7.66618411158992E+01
Ewald energy        : -5.05846026162625E+02
psp_core            :  3.67163727520570E+01
xc_dc               : -1.57295415560641E+02
spherical_terms     :  8.72656043377004E+00
total_energy_dc     : -6.94360349653338E+02
total_energy_dc_eV  : -1.88945060115808E+04
...

 
 Cartesian components of stress tensor (hartree/bohr^3)
  sigma(1 1)= -9.89520965E-14  sigma(3 2)=  9.92292186E-14
  sigma(2 2)= -3.30308697E-14  sigma(3 1)=  1.17407619E-13
  sigma(3 3)=  3.41671136E-14  sigma(2 1)=  5.47513627E-15
 
-Cartesian components of stress tensor (GPa)         [Pressure=  9.5928E-10 GPa]
- sigma(1 1)= -2.91127070E-09  sigma(3 2)=  2.91942391E-09
- sigma(2 2)= -9.71801574E-10  sigma(3 1)=  3.45425083E-09
- sigma(3 3)=  1.00523102E-09  sigma(2 1)=  1.61084043E-10
 
== END DATASET(S) ==============================================================
================================================================================
  
 -outvars: echo values of variables after computation  --------
-          iomode           1
            acell      1.0000000000E+00  1.0000000000E+00  1.0000000000E+00 Bohr
              amu      1.38905500E+02  9.59400000E+01  1.59994000E+01
        autoparal           1
           bandpp          26
     densfor_pred           6
           diemac      4.00000000E+00
          dilatmx      1.04000000E+00
             ecut      3.00000000E+01 Hartree
           ecutsm      5.00000000E-01 Hartree
           etotal1    -6.9436034965E+02
            fcart1    -2.9591957885E-12 -1.8310515457E-12 -2.4419970775E-11
                       1.3668882490E-11  1.0754426653E-11 -7.9499175551E-12
                      -3.7424385148E-11  4.5374777069E-12  7.4088741115E-12
                       2.4496850152E-11 -5.2533316693E-11  3.0231811792E-11
                       1.0691139482E-11 -4.2060677315E-12 -3.7520816972E-11
                       2.6985268851E-11 -3.1210947645E-11 -4.0306693856E-11
                      -2.3947850376E-11 -2.6331136368E-12  3.9537035047E-11
                       1.3291166334E-11 -7.0691329181E-11 -1.8280454267E-11
                      -3.3010984083E-12 -2.9579869404E-11 -1.0147743040E-11
                      -3.0302479896E-11  1.5951843138E-11 -4.0653850674E-11
                      -4.8213973636E-11 -1.3094965582E-12 -1.1204439495E-11
                       3.4240014700E-11  3.9182137712E-11 -5.7430738479E-12
                       7.7498425497E-12 -5.9740804751E-11 -3.6687700257E-11
                       2.6953745191E-11  3.2004955435E-11  4.4010576477E-11
                       1.5385940091E-11 -4.7566072249E-11 -3.3710602376E-11
                      -2.7893887453E-11  2.6426478871E-11  3.5333165844E-11
                      -2.0413524444E-11  1.3960720160E-11 -2.7624010049E-11
                       2.4103579453E-11  1.6307548865E-11  2.5429038588E-12
                       4.0370007149E-11  1.6894762241E-11  1.0271869552E-11
                      -4.3447065725E-11 -3.6596923639E-11  9.8153321544E-12
                      -2.5864291415E-12 -1.4501723898E-11  6.7518763560E-11
                      -1.7623792667E-11 -7.0722884336E-12  3.8373811185E-12
                       3.3323590838E-11  6.9313244157E-11  2.0139869071E-11
                      -2.0839030303E-11  1.9055694570E-11 -6.3989671512E-15
                       5.1530140510E-11  3.2095424137E-11  7.4181682830E-12
                      -4.3837454784E-11  6.2988291551E-11  1.6189921235E-11
-          fftalg         401
           ionmov           2
             iscf           7
              ixc     -116133
           jdtset        1
              kpt      2.50000000E-01  2.50000000E-01  2.50000000E-01
                      -2.50000000E-01  2.50000000E-01  2.50000000E-01
                       2.50000000E-01 -2.50000000E-01  2.50000000E-01
                      -2.50000000E-01 -2.50000000E-01  2.50000000E-01
         kptrlatt        2    0    0      0    2    0      0    0    2
          kptrlen      2.66254344E+01
P           mkmem           2
            natom          26
            nband         104
           ndtset           1
            ngfft          72      75      75
          ngfftdg          72      75      75
             nkpt           4
-           npfft          15
-           npkpt           2
            nstep         100
             nsym           1
            ntime         150
           ntypat           3
              occ      2.000000  2.000000  2.000000  2.000000  2.000000  2.000000
                       2.000000  2.000000  2.000000  2.000000  2.000000  2.000000
                       2.000000  2.000000  2.000000  2.000000  2.000000  2.000000
                       2.000000  2.000000  2.000000  2.000000  2.000000  2.000000
                       2.000000  2.000000  2.000000  2.000000  2.000000  2.000000
                       2.000000  2.000000  2.000000  2.000000  2.000000  2.000000
                       2.000000  2.000000  2.000000  2.000000  2.000000  2.000000
                       2.000000  2.000000  2.000000  2.000000  2.000000  2.000000
                       2.000000  2.000000  2.000000  2.000000  2.000000  2.000000
                       2.000000  2.000000  2.000000  2.000000  2.000000  2.000000
                       2.000000  2.000000  2.000000  2.000000  2.000000  2.000000
                       2.000000  2.000000  2.000000  2.000000  2.000000  2.000000
                       2.000000  2.000000  2.000000  2.000000  2.000000  2.000000
                       2.000000  2.000000  2.000000  2.000000  2.000000  2.000000
                       2.000000  2.000000  2.000000  2.000000  2.000000  2.000000
                       2.000000  2.000000  2.000000  2.000000  2.000000  2.000000
                       2.000000  2.000000  2.000000  2.000000  2.000000  2.000000
                       2.000000  2.000000
          optcell           2
        paral_kgb           1
        pawecutdg      3.00000000E+01 Hartree
         pawmixdg           1
         pawxcdev           0
           prtcif           1
           prteig           0
            rprim      1.3312715685E+01 -1.0403299369E-03  6.2270153653E-03
                      -7.4016537673E-04  1.3575777766E+01  6.8482057284E-01
                       6.2903295016E-03  7.1189105740E-01  1.3566855103E+01
           shiftk      5.00000000E-01  5.00000000E-01  5.00000000E-01
          spgroup           1
           strten1    -9.8952096517E-14 -3.3030869706E-14  3.4167113583E-14
                       9.9229218592E-14  1.1740761915E-13  5.4751362678E-15
           tolmxf      1.00000000E-08
           tolvrs      1.00000000E-20
            typat      1  1  1  1  2  2  2  2  3  3  3  3  3  3  3  3  3  3  3  3
                       3  3  3  3  3  3
           useylm           1
         wfoptalg         114
              wtk        0.25000    0.25000    0.25000    0.25000
           xangst      6.1285142925E+00  6.5681549016E+00  6.1961167981E+00
                       2.6074990288E+00  4.5748049556E+00  1.5254179001E+00
                       8.7805226910E-01  2.6352746552E+00  4.4647290653E+00
                       4.3969401050E+00  1.3314389838E+00  2.8991851047E+00
                       1.1354229032E+00  9.3108271555E-01  1.4026959851E+00
                       4.6629674042E+00  3.0372144100E+00  5.9596831324E+00
                       5.8566770025E+00  5.1733973193E+00  2.3979418688E+00
                       2.3357438004E+00  5.9740100295E+00  5.3287572874E+00
                       2.2495528276E+00  2.3119357567E+00  2.2995702674E+00
                       5.7742173509E+00  1.6550583781E+00  5.0759389111E+00
                       4.8175757980E+00  5.6761562483E+00  9.9459415623E-01
                       1.2960121911E+00  5.4665050078E+00  6.7306376513E+00
                       6.8612934517E+00  1.5650260697E+00  2.5132329611E+00
                       3.3409068925E+00  2.4032963476E+00  4.8568298556E+00
                       3.0928915560E-01  4.2235148144E+00  2.3710100310E+00
                       3.8291168404E+00  6.9320750028E+00  5.3522136209E+00
                       2.5892572709E+00  7.0147384209E+00  2.1412962465E+00
                       1.1811668939E+00  1.1675411671E-01  4.5463557813E+00
                       6.1148356505E+00  4.1403534344E+00  5.5769279279E+00
                       4.7058918256E+00  3.8452784190E+00  2.8209779699E+00
                       1.1523304104E+00  2.0230779975E+00  6.9812882299E+00
                       5.7171405457E+00  6.3478663168E+00  3.7092500450E+00
                       2.1976850373E+00  4.8057171087E+00  4.0123751204E+00
                       4.6681531011E+00  1.9636626016E+00  3.8949121616E-01
                       5.8150180784E-02 -5.5392342151E-01  1.0007473481E+00
                       3.5860457246E+00  4.5278374724E+00  6.3544998654E+00
            xcart      1.1581213614E+01  1.2412013962E+01  1.1708963836E+01
                       4.9274590562E+00  8.6451284774E+00  2.8826220694E+00
                       1.6592783190E+00  4.9799473833E+00  8.4371151909E+00
                       8.3090126211E+00  2.5160550420E+00  5.4786658565E+00
                       2.1456383321E+00  1.7594913394E+00  2.6507112595E+00
                       8.8117313606E+00  5.7395034418E+00  1.1262168959E+01
                       1.1067515584E+01  9.7763041102E+00  4.5314534146E+00
                       4.4139160994E+00  1.1289242871E+01  1.0069891902E+01
                       4.2510387656E+00  4.3689254170E+00  4.3455580288E+00
                       1.0911689425E+01  3.1276070685E+00  9.5921344092E+00
                       9.1038988826E+00  1.0726380797E+01  1.8795105686E+00
                       2.4491081061E+00  1.0330197369E+01  1.2719061861E+01
                       1.2965965541E+01  2.9574706625E+00  4.7493220047E+00
                       6.3133990624E+00  4.5415719132E+00  9.1780783011E+00
                       5.8447179996E-01  7.9812863175E+00  4.4805596170E+00
                       7.2359821591E+00  1.3099723288E+01  1.0114217948E+01
                       4.8929871296E+00  1.3255934509E+01  4.0464634752E+00
                       2.2320819467E+00  2.2063330547E-01  8.5913673294E+00
                       1.1555364727E+01  7.8241340843E+00  1.0538866447E+01
                       8.8928467614E+00  7.2665231167E+00  5.3308757901E+00
                       2.1775888903E+00  3.8230633607E+00  1.3192722809E+01
                       1.0803829895E+01  1.1995728867E+01  7.0094667434E+00
                       4.1530228468E+00  9.0814892077E+00  7.5822901199E+00
                       8.8215309074E+00  3.7107845344E+00  7.3603172972E-01
                       1.0988791626E-01 -1.0467635653E+00  1.8911384161E+00
                       6.7766443195E+00  8.5563727971E+00  1.2008264457E+01
             xred      8.6959784685E-01  8.7141337099E-01  8.1867071981E-01
                       3.7008130063E-01  6.2736140494E-01  1.8063785248E-01
                       1.2437140993E-01  3.3511453090E-01  6.0491892490E-01
                       6.2396347729E-01  1.6465678278E-01  3.9522940529E-01
                       1.6108932480E-01  1.1969276508E-01  1.8926568216E-01
                       6.6154149039E-01  3.8031829576E-01  8.1062262796E-01
                       8.3124753978E-01  7.0456224400E-01  2.9806307159E-01
                       3.3126890467E-01  7.9478764568E-01  7.0197124404E-01
                       3.1919470514E-01  3.0586307630E-01  3.0472125190E-01
                       8.1932565091E-01  1.9390186524E-01  6.9686337752E-01
                       6.8384692542E-01  7.8499375685E-01  9.8598559426E-02
                       1.8358134362E-01  7.1367468306E-01  9.0140120896E-01
                       9.7380416436E-01  2.0011986706E-01  3.3951950354E-01
                       4.7394253184E-01  2.9990156815E-01  6.6115162445E-01
                       4.3792688057E-02  5.7210696186E-01  3.0135917800E-01
                       5.4326076688E-01  9.2835228699E-01  6.9839916754E-01
                       3.6747806432E-01  9.6338689195E-01  2.4946297390E-01
                       1.6736487851E-01 -1.6983291743E-02  6.3404197863E-01
                       8.6767036894E-01  5.3710490748E-01  7.4929988434E-01
                       6.6785192986E-01  5.1608500300E-01  3.6657658689E-01
                       1.6313103472E-01  2.3124544503E-01  9.6067550311E-01
                       8.1136643665E-01  8.5887490476E-01  4.7293489163E-01
                       3.1174605182E-01  6.4137014729E-01  5.2636556863E-01
                       6.6263553524E-01  2.7127852749E-01  4.0254603393E-02
                       8.1817705537E-03 -8.4638035154E-02  1.4366257478E-01
                       5.0866385885E-01  5.8545439426E-01  8.5533203514E-01
            znucl       57.00000   42.00000    8.00000
 
================================================================================


- Timing analysis has been suppressed with timopt=0



================================================================================

 Suggested references for the acknowledgment of ABINIT usage.

 The users of ABINIT have little formal obligations with respect to the ABINIT group
 (those specified in the GNU General Public License, http://www.gnu.org/copyleft/gpl.txt).
 However, it is common practice in the scientific literature,
 to acknowledge the efforts of people that have made the research possible.
 In this spirit, please find below suggested citations of work written by ABINIT developers,
 corresponding to implementations inside of ABINIT that you have used in the present run.
 Note also that it will be of great value to readers of publications presenting these results,
 to read papers enabling them to understand the theoretical formalism and details
 of the ABINIT implementation.
 For information on why they are suggested, see also https://docs.abinit.org/theory/acknowledgments.
-
- [1] Implementation of the Projector Augmented-Wave Method in the ABINIT code.
- M. Torrent, F. Jollet, F. Bottin, G. Zerah, and X. Gonze Comput. Mat. Science 42, 337, (2008).
- Comment: PAW calculations. Strong suggestion to cite this paper.
- DOI and bibtex: see https://docs.abinit.org/theory/bibliography/#torrent2008
-
- [2] Libxc: A library of exchange and correlation functionals for density functional theory.
- M.A.L. Marques, M.J.T. Oliveira, T. Burnus, Computer Physics Communications 183, 2227 (2012).
- Comment: to be cited when LibXC is used (negative value of ixc)
- Strong suggestion to cite this paper.
- DOI and bibtex: see https://docs.abinit.org/theory/bibliography/#marques2012
-
- [3] Large scale ab initio calculations based on three levels of parallelization
- F. Bottin, S. Leroux, A. Knyazev, G. Zerah, Comput. Mat. Science 42, 329, (2008).
- Comment: in case LOBPCG algorithm is used (wfoptalg=4/14/114).
- Strong suggestion to cite this paper in your publications.
- This paper is also available at http://www.arxiv.org/abs/0707.3405
- DOI and bibtex: see https://docs.abinit.org/theory/bibliography/#bottin2008
-
- [4] The Abinit project: Impact, environment and recent developments.
- Computer Phys. Comm. 248, 107042 (2020).
- X.Gonze, B. Amadon, G. Antonius, F.Arnardi, L.Baguet, J.-M.Beuken,
- J.Bieder, F.Bottin, J.Bouchet, E.Bousquet, N.Brouwer, F.Bruneval,
- G.Brunin, T.Cavignac, J.-B. Charraud, Wei Chen, M.Cote, S.Cottenier,
- J.Denier, G.Geneste, Ph.Ghosez, M.Giantomassi, Y.Gillet, O.Gingras,
- D.R.Hamann, G.Hautier, Xu He, N.Helbig, N.Holzwarth, Y.Jia, F.Jollet,
- W.Lafargue-Dit-Hauret, K.Lejaeghere, M.A.L.Marques, A.Martin, C.Martins,
- H.P.C. Miranda, F.Naccarato, K. Persson, G.Petretto, V.Planes, Y.Pouillon,
- S.Prokhorenko, F.Ricci, G.-M.Rignanese, A.H.Romero, M.M.Schmitt, M.Torrent,
- M.J.van Setten, B.Van Troeye, M.J.Verstraete, G.Zerah and J.W.Zwanzig
- Comment: the fifth generic paper describing the ABINIT project.
- Note that a version of this paper, that is not formatted for Computer Phys. Comm. 
- is available at https://www.abinit.org/sites/default/files/ABINIT20.pdf .
- The licence allows the authors to put it on the Web.
- DOI and bibtex: see https://docs.abinit.org/theory/bibliography/#gonze2020
-
- [5] ABINIT: Overview, and focus on selected capabilities
- J. Chem. Phys. 152, 124102 (2020).
- A. Romero, D.C. Allan, B. Amadon, G. Antonius, T. Applencourt, L.Baguet,
- J.Bieder, F.Bottin, J.Bouchet, E.Bousquet, F.Bruneval,
- G.Brunin, D.Caliste, M.Cote,
- J.Denier, C. Dreyer, Ph.Ghosez, M.Giantomassi, Y.Gillet, O.Gingras,
- D.R.Hamann, G.Hautier, F.Jollet, G. Jomard,
- A.Martin, 
- H.P.C. Miranda, F.Naccarato, G.Petretto, N.A. Pike, V.Planes,
- S.Prokhorenko, T. Rangel, F.Ricci, G.-M.Rignanese, M.Royo, M.Stengel, M.Torrent,
- M.J.van Setten, B.Van Troeye, M.J.Verstraete, J.Wiktor, J.W.Zwanziger, and X.Gonze.
- Comment: a global overview of ABINIT, with focus on selected capabilities .
- Note that a version of this paper, that is not formatted for J. Chem. Phys 
- is available at https://www.abinit.org/sites/default/files/ABINIT20_JPC.pdf .
- The licence allows the authors to put it on the Web.
- DOI and bibtex: see https://docs.abinit.org/theory/bibliography/#romero2020
-
- [6] Recent developments in the ABINIT software package.
- Computer Phys. Comm. 205, 106 (2016).
- X.Gonze, F.Jollet, F.Abreu Araujo, D.Adams, B.Amadon, T.Applencourt,
- C.Audouze, J.-M.Beuken, J.Bieder, A.Bokhanchuk, E.Bousquet, F.Bruneval
- D.Caliste, M.Cote, F.Dahm, F.Da Pieve, M.Delaveau, M.Di Gennaro,
- B.Dorado, C.Espejo, G.Geneste, L.Genovese, A.Gerossier, M.Giantomassi,
- Y.Gillet, D.R.Hamann, L.He, G.Jomard, J.Laflamme Janssen, S.Le Roux,
- A.Levitt, A.Lherbier, F.Liu, I.Lukacevic, A.Martin, C.Martins,
- M.J.T.Oliveira, S.Ponce, Y.Pouillon, T.Rangel, G.-M.Rignanese,
- A.H.Romero, B.Rousseau, O.Rubel, A.A.Shukri, M.Stankovski, M.Torrent,
- M.J.Van Setten, B.Van Troeye, M.J.Verstraete, D.Waroquier, J.Wiktor,
- B.Xu, A.Zhou, J.W.Zwanziger.
- Comment: the fourth generic paper describing the ABINIT project.
- Note that a version of this paper, that is not formatted for Computer Phys. Comm. 
- is available at https://www.abinit.org/sites/default/files/ABINIT16.pdf .
- The licence allows the authors to put it on the Web.
- DOI and bibtex: see https://docs.abinit.org/theory/bibliography/#gonze2016
-
- Proc.   0 individual time (sec): cpu=        506.8  wall=        512.0
 
================================================================================
 
 Calculation completed.
.Delivered   0 WARNINGs and   0 COMMENTs to log file.
+Overall time at end (sec) : cpu=      15261.5  wall=      15351.6
