
.Version 9.3.2 of ABINIT 
.(MPI version, prepared for a x86_64_linux_intel19.1 computer) 

.Copyright (C) 1998-2020 ABINIT group . 
 ABINIT comes with ABSOLUTELY NO WARRANTY.
 It is free software, and you are welcome to redistribute it
 under certain conditions (GNU General Public License,
 see ~abinit/COPYING or http://www.gnu.org/copyleft/gpl.txt).

 ABINIT is a project of the Universite Catholique de Louvain,
 Corning Inc. and other collaborators, see ~abinit/doc/developers/contributors.txt .
 Please read https://docs.abinit.org/theory/acknowledgments for suggested
 acknowledgments of the ABINIT effort.
 For more information, see https://www.abinit.org .

.Starting date : Thu  2 Dec 2021.
- ( at 13h33 )
  
- input  file    -> abi.in
- output file    -> abi.out
- root for input  files -> abi-i
- root for output files -> abi-o
 
- inpspheads : Reading pseudopotential header in XML form from 
-   ~/ABINIT_PAW_PBE/paw_pbe_standard/La.xml
- inpspheads : Reading pseudopotential header in XML form from 
-   ~/ABINIT_PAW_PBE/paw_pbe_standard/Mo.xml
- inpspheads : Reading pseudopotential header in XML form from 
-   ~/ABINIT_PAW_PBE/paw_pbe_standard/O.xml
 
 Symmetries : space group P1 (#  1); Bravais aP (primitive triclinic)
================================================================================
 Values of the parameters that define the memory need of the present run
     intxc =       0    ionmov =       0      iscf =       7    lmnmax =      32
     lnmax =       8     mgfft =      75  mpssoang =       4    mqgrid =    3335
     natom =      26  nloc_mem =       2    nspden =       1   nspinor =       1
    nsppol =       1      nsym =       1    n1xccc =       1    ntypat =       3
    occopt =       1   xclevel =       2
-    mband =         104        mffmem =           1         mkmem =           1
       mpw =        3877          nfft =       81000          nkpt =           4
Pmy_natom=         7
 PAW method is used; the additional fine FFT grid is defined by:
   mgfftf=        75    nfftf =     81000
================================================================================
P This job should need less than                      88.612 Mbytes of memory.
  Rough estimation (10% accuracy) of disk space for files :
_ WF disk file :    123.051 Mbytes ; DEN or POT disk file :      0.620 Mbytes.
================================================================================
 
--------------------------------------------------------------------------------
------------- Echo of variables that govern the present computation ------------
--------------------------------------------------------------------------------
-
- outvars: echo of selected default values                                      
-   iomode0 =  0 , fftalg0 =512 , wfoptalg0 = 10
-
- outvars: echo of global parameters not present in the input file              
-  max_nthreads =    1
-
 -outvars: echo values of preprocessed input variables --------
-          iomode           1
            acell      1.0000000000E+00  1.0000000000E+00  1.0000000000E+00 Bohr
              amu      1.38905500E+02  9.59400000E+01  1.59994000E+01
        autoparal           1
           bandpp          26
     densfor_pred           6
           diemac      4.00000000E+00
             ecut      3.00000000E+01 Hartree
           ecutsm      5.00000000E-01 Hartree
-          fftalg         401
             iscf           7
              ixc     -116133
              kpt      2.50000000E-01  2.50000000E-01  2.50000000E-01
                      -2.50000000E-01  2.50000000E-01  2.50000000E-01
                       2.50000000E-01 -2.50000000E-01  2.50000000E-01
                      -2.50000000E-01 -2.50000000E-01  2.50000000E-01
         kptrlatt        2    0    0      0    2    0      0    0    2
          kptrlen      2.66217830E+01
P           mkmem           1
            natom          26
            nband         104
            ngfft          72      75      75
          ngfftdg          72      75      75
             nkpt           4
-           npfft           5
-           npkpt           4
            nstep           1
             nsym           1
           ntypat           3
              occ      2.000000  2.000000  2.000000  2.000000  2.000000  2.000000
                       2.000000  2.000000  2.000000  2.000000  2.000000  2.000000
                       2.000000  2.000000  2.000000  2.000000  2.000000  2.000000
                       2.000000  2.000000  2.000000  2.000000  2.000000  2.000000
                       2.000000  2.000000  2.000000  2.000000  2.000000  2.000000
                       2.000000  2.000000  2.000000  2.000000  2.000000  2.000000
                       2.000000  2.000000  2.000000  2.000000  2.000000  2.000000
                       2.000000  2.000000  2.000000  2.000000  2.000000  2.000000
                       2.000000  2.000000  2.000000  2.000000  2.000000  2.000000
                       2.000000  2.000000  2.000000  2.000000  2.000000  2.000000
                       2.000000  2.000000  2.000000  2.000000  2.000000  2.000000
                       2.000000  2.000000  2.000000  2.000000  2.000000  2.000000
                       2.000000  2.000000  2.000000  2.000000  2.000000  2.000000
                       2.000000  2.000000  2.000000  2.000000  2.000000  2.000000
                       2.000000  2.000000  2.000000  2.000000  2.000000  2.000000
                       2.000000  2.000000  2.000000  2.000000  2.000000  2.000000
                       2.000000  2.000000  2.000000  2.000000  2.000000  2.000000
                       2.000000  2.000000
        paral_kgb           1
        pawecutdg      3.00000000E+01 Hartree
         pawmixdg           1
         pawxcdev           0
           prtcif           1
           prteig           0
            rprim      1.3574019889E+01 -6.9925850306E-01  3.9303766765E-03
                      -7.2345261645E-01  1.3577798370E+01  6.4036056348E-03
                       3.0412725580E-03  6.6526049057E-03  1.3310889481E+01
           shiftk      5.00000000E-01  5.00000000E-01  5.00000000E-01
          spgroup           1
           tolvrs      1.00000000E-20
            typat      1  1  1  1  2  2  2  2  3  3  3  3  3  3  3  3  3  3  3  3
                       3  3  3  3  3  3
           useylm           1
         wfoptalg         114
              wtk        0.25000    0.25000    0.25000    0.25000
           xangst      5.6541571073E+00  6.1270008047E+00  6.1753113986E+00
                       2.4029613887E+00  4.7636063445E+00  9.2587607822E-01
                       8.0309441326E-01  2.2422530654E+00  4.4395718678E+00
                       4.7389722135E+00  5.0791279685E-01  2.6501868660E+00
                       1.4007689687E+00  1.3804923783E+00  1.1881331212E+00
                       4.3374485764E+00  2.0071702435E+00  5.9075481981E+00
                       6.0565226309E+00  4.6273043801E+00  2.3890592822E+00
                       1.8097904193E+00  5.6220258187E+00  4.7166735423E+00
                       1.9036365923E+00  2.7845753881E+00  2.2279654419E+00
                       5.7182186876E+00  1.1083432259E+00  4.7972810269E+00
                       4.6731582214E+00  5.5207912423E+00  1.2780865561E+00
                       1.3038873416E+00  4.2179459439E+00  5.7541630584E+00
                       7.2539142497E+00  5.9465561066E-01  2.3434008131E+00
                       3.2355014344E+00  1.6220355596E+00  4.4557044929E+00
                      -2.6778778035E-02  5.3865074043E+00  9.3371343115E-01
                       3.1341843791E+00  6.0445576872E+00  5.8739059061E+00
                       2.1869255419E+00  7.2509771039E+00  1.3410329956E+00
                       1.0219294764E+00 -2.4862210949E-01  4.8482990786E+00
                       5.0465643793E+00  3.6102081717E+00  5.8900567348E+00
                       5.3515723844E+00  3.0222498305E+00  2.3737744199E+00
                       4.4774649353E-01  1.3941049625E+00  6.7361114674E+00
                       5.4253551173E+00  5.7310777459E+00  3.7104687276E+00
                       2.7705360453E+00  5.6039789918E+00  3.2253386747E+00
                       4.9683065488E+00  9.0041954913E-01  1.8585711793E-01
                       2.8493671731E+00  2.4081489726E+00  6.9833833794E+00
                       7.5483911570E+00  4.2279996331E+00  3.4605969744E+00
            xcart      1.0684808445E+01  1.1578353537E+01  1.1669647329E+01
                       4.5409389326E+00  9.0019113959E+00  1.7496522208E+00
                       1.5176284999E+00  4.2372442143E+00  8.3895749775E+00
                       8.9553596349E+00  9.5981608543E-01  5.0081273778E+00
                       2.6470697263E+00  2.6087525235E+00  2.2452462084E+00
                       8.1965899249E+00  3.7930020622E+00  1.1163648211E+01
                       1.1445169090E+01  8.7443380119E+00  4.5146677585E+00
                       3.4200082504E+00  1.0624089109E+01  8.9132212532E+00
                       3.5973518159E+00  5.2620848800E+00  4.2102445188E+00
                       1.0805867288E+01  2.0944651581E+00  9.0655473233E+00
                       8.8309892141E+00  1.0432783485E+01  2.4152335651E+00
                       2.4639899838E+00  7.9707626772E+00  1.0873792304E+01
                       1.3707911323E+01  1.1237362475E+00  4.4283857563E+00
                       6.1142116135E+00  3.0652029855E+00  8.4200612206E+00
                      -5.0604556660E-02  1.0179023807E+01  1.7644626715E+00
                       5.9227501265E+00  1.1422558623E+01  1.1100073493E+01
                       4.1326903472E+00  1.3702360922E+01  2.5341850968E+00
                       1.9311668374E+00 -4.6982769752E-01  9.1619574689E+00
                       9.5366245888E+00  6.8223047273E+00  1.1130594136E+01
                       1.0113006187E+01  5.7112244847E+00  4.4857835548E+00
                       8.4611824972E-01  2.6344765797E+00  1.2729405874E+01
                       1.0252435345E+01  1.0830167386E+01  7.0117697198E+00
                       5.2355543669E+00  1.0589985549E+01  6.0950067809E+00
                       9.3887387215E+00  1.7015463525E+00  3.5121905274E-01
                       5.3845236093E+00  4.5507420454E+00  1.3196682068E+01
                       1.4264392031E+01  7.9897613966E+00  6.5395805378E+00
             xred      8.3467167895E-01  8.9529809220E-01  8.7602211972E-01
                       3.7085191847E-01  6.8202229549E-01  1.3100756593E-01
                       1.2863178430E-01  3.1838735851E-01  6.3008791343E-01
                       6.6524208759E-01  1.0476594805E-01  3.7599604843E-01
                       2.0577277682E-01  2.0264845015E-01  1.6851914865E-01
                       6.2022527624E-01  3.1088417404E-01  8.3835266820E-01
                       8.7982158761E-01  6.8916241402E-01  3.3857967271E-01
                       2.9429556387E-01  7.9728877326E-01  6.6914829776E-01
                       2.8637965561E-01  4.0214442476E-01  3.1602273992E-01
                       8.0633411983E-01  1.9544939801E-01  6.8073035679E-01
                       6.9338996560E-01  8.0399184395E-01  1.8085642121E-01
                       2.1319098018E-01  5.9762310628E-01  8.1655906288E-01
                       1.0169830722E+00  1.3497471681E-01  3.3232371970E-01
                       4.6358092756E-01  2.4931577809E-01  6.3231256371E-01
                       3.6294174028E-02  7.5148585658E-01  1.3218559174E-01
                       4.8228205335E-01  8.6569664532E-01  8.3335034662E-01
                       3.5918009494E-01  1.0275788254E+00  1.8978394928E-01
                       1.4063896966E-01 -2.7696945287E-02  6.8827722431E-01
                       7.3114182848E-01  5.3970473780E-01  8.3572660059E-01
                       7.6947271259E-01  4.6009269700E-01  3.3655248895E-01
                       7.2634911023E-02  1.9730046602E-01  9.5619883067E-01
                       7.9987385707E-01  8.3857379070E-01  5.2612982989E-01
                       4.2833412554E-01  8.0178381918E-01  4.5738408149E-01
                       7.0026435727E-01  1.6136920409E-01  2.6101441665E-02
                       4.1543396971E-01  3.5606981925E-01  9.9112603588E-01
                       1.0850775514E+00  6.4408431033E-01  4.9066527986E-01
            znucl       57.00000   42.00000    8.00000
 
================================================================================
 
 chkinp: Checking input parameters for consistency.
 
================================================================================
== DATASET  1 ==================================================================
-   mpi_nproc: 20, omp_nthreads: 1 (-1 if OMP is not activated)
 

--- !DatasetInfo
iteration_state: {dtset: 1, }
dimensions: {natom: 26, nkpt: 4, mband: 104, nsppol: 1, nspinor: 1, nspden: 1, mpw: 3877, }
cutoff_energies: {ecut:  30.0, pawecutdg:  30.0, }
electrons: {nelect:   2.08000000E+02, charge:   0.00000000E+00, occopt:   1.00000000E+00, tsmear:   1.00000000E-02, }
meta: {optdriver: 0, ionmov: 0, optcell: 0, iscf: 7, paral_kgb: 1, }
...

 Real(R)+Recip(G) space primitive vectors, cartesian coordinates (Bohr,Bohr^-1):
 R(1)= 13.5740199 -0.6992585  0.0039304  G(1)=  0.0738729  0.0039361 -0.0000188
 R(2)= -0.7234526 13.5777984  0.0064036  G(2)=  0.0038045  0.0738524 -0.0000378
 R(3)=  0.0030413  0.0066526 13.3108895  G(3)= -0.0000236 -0.0000367  0.0751265
 Unit cell volume ucvol=  2.4465331E+03 bohr^3
 Angles (23,13,12)=  8.99451177E+01  8.99718315E+01  9.59988977E+01 degrees
 
 Coarse grid specifications (used for wave-functions):
 
 getcut: wavevector=  0.0000  0.0000  0.0000  ngfft=  72  75  75
         ecut(hartree)=     30.000   => boxcut(ratio)=   2.14848
 
 Fine grid specifications (used for densities):
 
 getcut: wavevector=  0.0000  0.0000  0.0000  ngfft=  72  75  75
         ecut(hartree)=     30.000   => boxcut(ratio)=   2.14848
 
--- Pseudopotential description ------------------------------------------------
- pspini: atom type   1  psp file is ~/ABINIT_PAW_PBE/paw_pbe_standard/La.xml
- pspatm: opening atomic psp file    ~/ABINIT_PAW_PBE/paw_pbe_standard/La.xml
- pspatm : Reading pseudopotential header in XML form from ~/ABINIT_PAW_PBE/paw_pbe_standard/La.xml
 Pseudopotential format is: paw10
 basis_size (lnmax)=  8 (lmn_size= 32), orbitals=   0   0   1   1   2   2   3   3
 Spheres core radius: rc_sph= 2.51647158
 1 radial meshes are used:
  - mesh 1: r(i)=AA*[exp(BB*(i-1))-1], size=1500 , AA= 0.15403E-03 BB= 0.87795E-02
 Shapefunction is SIN type: shapef(r)=[sin(pi*r/rshp)/(pi*r/rshp)]**2
 Radius for shape functions =  2.30494653
 mmax= 1500
 Radial grid used for partial waves is grid 1
 Radial grid used for projectors is grid 1
 Radial grid used for (t)core density is grid 1
 Radial grid used for Vloc is grid 1
 Radial grid used for pseudo valence density is grid 1
 Mesh size for Vloc has been set to 1342 to avoid numerical noise.
 Compensation charge density is not taken into account in XC energy/potential
 pspatm: atomic psp has been read  and splines computed
 
- pspini: atom type   2  psp file is ~/ABINIT_PAW_PBE/paw_pbe_standard/Mo.xml
- pspatm: opening atomic psp file    ~/ABINIT_PAW_PBE/paw_pbe_standard/Mo.xml
- pspatm : Reading pseudopotential header in XML form from ~/ABINIT_PAW_PBE/paw_pbe_standard/Mo.xml
 Pseudopotential format is: paw10
 basis_size (lnmax)=  6 (lmn_size= 18), orbitals=   0   0   1   1   2   2
 Spheres core radius: rc_sph= 2.20000000
 1 radial meshes are used:
  - mesh 1: r(i)=AA*[exp(BB*(i-1))-1], size= 846 , AA= 0.34789E-03 BB= 0.14611E-01
 Shapefunction is SIN type: shapef(r)=[sin(pi*r/rshp)/(pi*r/rshp)]**2
 Radius for shape functions =  1.90088266
 mmax=  846
 Radial grid used for partial waves is grid 1
 Radial grid used for projectors is grid 1
 Radial grid used for (t)core density is grid 1
 Radial grid used for Vloc is grid 1
 Radial grid used for pseudo valence density is grid 1
 Mesh size for Vloc has been set to  751 to avoid numerical noise.
 Compensation charge density is not taken into account in XC energy/potential
 pspatm: atomic psp has been read  and splines computed
 
- pspini: atom type   3  psp file is ~/ABINIT_PAW_PBE/paw_pbe_standard/O.xml
- pspatm: opening atomic psp file    ~/ABINIT_PAW_PBE/paw_pbe_standard/O.xml
- pspatm : Reading pseudopotential header in XML form from ~/ABINIT_PAW_PBE/paw_pbe_standard/O.xml
 Pseudopotential format is: paw10
 basis_size (lnmax)=  4 (lmn_size=  8), orbitals=   0   0   1   1
 Spheres core radius: rc_sph= 1.41465230
 1 radial meshes are used:
  - mesh 1: r(i)=AA*[exp(BB*(i-1))-1], size=2001 , AA= 0.72565E-03 BB= 0.58052E-02
 Shapefunction is SIN type: shapef(r)=[sin(pi*r/rshp)/(pi*r/rshp)]**2
 Radius for shape functions =  1.20231231
 mmax= 2001
 Radial grid used for partial waves is grid 1
 Radial grid used for projectors is grid 1
 Radial grid used for (t)core density is grid 1
 Radial grid used for Vloc is grid 1
 Radial grid used for pseudo valence density is grid 1
 Mesh size for Vloc has been set to 1762 to avoid numerical noise.
 Compensation charge density is not taken into account in XC energy/potential
 pspatm: atomic psp has been read  and splines computed
 
   8.97881771E+04                                ecore*ucvol(ha*bohr**3)
--------------------------------------------------------------------------------
 
_setup2: Arith. and geom. avg. npw (full set) are    3873.750    3873.749
 
================================================================================

--- !BeginCycle
iteration_state: {dtset: 1, }
solver: {iscf: 7, nstep: 1, nline: 4, wfoptalg: 114, }
tolerances: {tolvrs: 1.00E-20, }
...
 
     iter   Etot(hartree)      deltaE(h)  residm     vres2
 ETOT  1  -689.20472414662    -6.892E+02 1.568E-02 2.338E+04
 
 Cartesian components of stress tensor (hartree/bohr^3)
  sigma(1 1)= -2.95281643E-03  sigma(3 2)=  9.03129858E-06
  sigma(2 2)= -3.01688511E-03  sigma(3 1)=  3.91644550E-05
  sigma(3 3)= -2.80374581E-03  sigma(2 1)=  1.92127239E-04
 
 
 scprqt:  WARNING -
  nstep=    1 was not enough SCF cycles to converge;
  potential residual=  2.338E+04 exceeds tolvrs=  1.000E-20
 

--- !ResultsGS
iteration_state: {dtset: 1, }
comment   : Summary of ground state results
lattice_vectors:
- [ 13.5740199,  -0.6992585,   0.0039304, ]
- [ -0.7234526,  13.5777984,   0.0064036, ]
- [  0.0030413,   0.0066526,  13.3108895, ]
lattice_lengths: [  13.59202,   13.59706,   13.31089, ]
lattice_angles: [ 89.945,  89.972,  95.999, ] # degrees, (23, 13, 12)
lattice_volume:   2.4465331E+03
convergence: {deltae: -6.892E+02, res2:  2.338E+04, residm:  1.568E-02, diffor: null, }
etotal    :  -6.89204724E+02
entropy   :   0.00000000E+00
fermie    :   2.85403722E-01
cartesian_stress_tensor: # hartree/bohr^3
- [ -2.95281643E-03,   1.92127239E-04,   3.91644550E-05, ]
- [  1.92127239E-04,  -3.01688511E-03,   9.03129858E-06, ]
- [  3.91644550E-05,   9.03129858E-06,  -2.80374581E-03, ]
pressure_GPa:   8.6041E+01
xred      :
- [  8.3467E-01,   8.9530E-01,   8.7602E-01, La]
- [  3.7085E-01,   6.8202E-01,   1.3101E-01, La]
- [  1.2863E-01,   3.1839E-01,   6.3009E-01, La]
- [  6.6524E-01,   1.0477E-01,   3.7600E-01, La]
- [  2.0577E-01,   2.0265E-01,   1.6852E-01, Mo]
- [  6.2023E-01,   3.1088E-01,   8.3835E-01, Mo]
- [  8.7982E-01,   6.8916E-01,   3.3858E-01, Mo]
- [  2.9430E-01,   7.9729E-01,   6.6915E-01, Mo]
- [  2.8638E-01,   4.0214E-01,   3.1602E-01,  O]
- [  8.0633E-01,   1.9545E-01,   6.8073E-01,  O]
- [  6.9339E-01,   8.0399E-01,   1.8086E-01,  O]
- [  2.1319E-01,   5.9762E-01,   8.1656E-01,  O]
- [  1.0170E+00,   1.3497E-01,   3.3232E-01,  O]
- [  4.6358E-01,   2.4932E-01,   6.3231E-01,  O]
- [  3.6294E-02,   7.5149E-01,   1.3219E-01,  O]
- [  4.8228E-01,   8.6570E-01,   8.3335E-01,  O]
- [  3.5918E-01,   1.0276E+00,   1.8978E-01,  O]
- [  1.4064E-01,  -2.7697E-02,   6.8828E-01,  O]
- [  7.3114E-01,   5.3970E-01,   8.3573E-01,  O]
- [  7.6947E-01,   4.6009E-01,   3.3655E-01,  O]
- [  7.2635E-02,   1.9730E-01,   9.5620E-01,  O]
- [  7.9987E-01,   8.3857E-01,   5.2613E-01,  O]
- [  4.2833E-01,   8.0178E-01,   4.5738E-01,  O]
- [  7.0026E-01,   1.6137E-01,   2.6101E-02,  O]
- [  4.1543E-01,   3.5607E-01,   9.9113E-01,  O]
- [  1.0851E+00,   6.4408E-01,   4.9067E-01,  O]
cartesian_forces: # hartree/bohr
- [ -5.36403056E-02,   4.68721580E-02,   5.32943508E-03, ]
- [  5.35171278E-02,   5.94026435E-02,   2.98542443E-02, ]
- [ -4.73021806E-02,  -7.06622645E-02,   2.66177600E-02, ]
- [  5.35303468E-02,  -4.70914952E-02,  -2.63208176E-02, ]
- [  4.99085632E-02,   2.19373827E-02,  -9.23623256E-02, ]
- [ -1.26129589E-01,   1.03588219E-01,   4.77635680E-03, ]
- [  1.10683672E-01,  -9.82065151E-02,   3.47276212E-02, ]
- [ -2.68594958E-02,  -1.09151276E-02,  -1.01305605E-01, ]
- [ -5.08912331E-03,  -1.34134022E-02,  -4.25824110E-04, ]
- [ -4.18052953E-02,   3.93995003E-02,   3.43417918E-02, ]
- [  2.87978042E-02,  -3.42474777E-02,   3.95724218E-02, ]
- [  1.01393677E-02,   1.82471313E-02,  -1.04989188E-02, ]
- [  2.37258717E-02,  -7.97545383E-03,  -6.21043331E-03, ]
- [  9.33777310E-03,  -2.15972376E-03,   3.43769205E-02, ]
- [ -5.83159984E-03,  -7.33378482E-03,   2.53976942E-02, ]
- [ -3.96436573E-02,   9.23657704E-03,  -1.13659868E-02, ]
- [ -1.77692876E-02,   1.99854646E-02,   9.37814407E-04, ]
- [  2.37694487E-02,  -1.86365840E-02,   3.61647508E-03, ]
- [ -1.36883855E-02,  -9.08075044E-03,  -5.07627999E-03, ]
- [ -5.03813905E-03,   1.32260634E-02,  -4.60629045E-03, ]
- [  2.32205105E-02,  -3.89788844E-03,   2.11054948E-02, ]
- [  1.35413917E-02,  -3.22439370E-02,  -1.84967218E-02, ]
- [ -7.29921916E-03,  -1.00587522E-03,   2.16870992E-02, ]
- [ -1.29022977E-02,   3.02732776E-02,  -4.49776416E-03, ]
- [  8.07144489E-05,  -3.15645078E-02,   6.55744264E-03, ]
- [  2.74598350E-03,   2.62663695E-02,  -7.73160442E-03, ]
force_length_stats: {min:   1.43526952E-02, max:   1.63285045E-01, mean:   5.46649035E-02, }
...

 Integrated electronic density in atomic spheres:
 ------------------------------------------------
 Atom  Sphere_radius  Integrated_density
    1        2.51647          8.44748970
    2        2.51647          8.13385593
    3        2.51647          8.12187217
    4        2.51647          8.11806592
    5        2.20000          9.91785838
    6        2.20000          9.80982344
    7        2.20000          9.79683545
    8        2.20000          9.92167721
    9        1.41465          5.04596109
   10        1.41465          5.03791834
   11        1.41465          5.06139206
   12        1.41465          5.01674211
   13        1.41465          5.01220822
   14        1.41465          4.98558662
   15        1.41465          4.96398646
   16        1.41465          4.98146091
   17        1.41465          5.03177953
   18        1.41465          5.02379321
   19        1.41465          4.97169458
   20        1.41465          4.97039776
   21        1.41465          5.04660621
   22        1.41465          4.97620869
   23        1.41465          5.01688429
   24        1.41465          5.03116838
   25        1.41465          4.97911708
   26        1.41465          4.99874328
 
 PAW TEST:
 ==== Compensation charge inside spheres ============
 The following values must be close to each other ...
 Compensation charge over spherical meshes =     22.018762213347770
 Compensation charge over fft grid         =     22.018740010303947
 
 ==== Results concerning PAW augmentation regions ====
 
 Total pseudopotential strength Dij (hartree):
 Atom #  1
   0.48412  -0.11971   0.00047   0.00013  -0.00026   0.00026   0.00007  -0.00014   0.00001  -0.00008   0.00006  -0.00008 ...
  -0.11971   0.02364  -0.00008  -0.00002   0.00005   0.00000   0.00000  -0.00000  -0.00000   0.00001  -0.00001   0.00001 ...
   0.00047  -0.00008  -0.17977  -0.00008   0.00001   0.04224  -0.00010   0.00002  -0.00008   0.00003  -0.00009  -0.00001 ...
   0.00013  -0.00002  -0.00008  -0.17967  -0.00008  -0.00010   0.04236  -0.00010  -0.00001   0.00012   0.00004  -0.00009 ...
  -0.00026   0.00005   0.00001  -0.00008  -0.17976   0.00002  -0.00010   0.04225   0.00013  -0.00001   0.00003   0.00004 ...
   0.00026   0.00000   0.04224  -0.00010   0.00002   0.31864  -0.00003   0.00000  -0.00008   0.00003  -0.00009  -0.00001 ...
   0.00007   0.00000  -0.00010   0.04236  -0.00010  -0.00003   0.31868  -0.00003  -0.00001   0.00011   0.00004  -0.00008 ...
  -0.00014  -0.00000   0.00002  -0.00010   0.04225   0.00000  -0.00003   0.31865   0.00012  -0.00001   0.00003   0.00004 ...
   0.00001  -0.00000  -0.00008  -0.00001   0.00013  -0.00008  -0.00001   0.00012  -0.05842  -0.00003  -0.00001  -0.00003 ...
  -0.00008   0.00001   0.00003   0.00012  -0.00001   0.00003   0.00011  -0.00001  -0.00003  -0.05840  -0.00002   0.00000 ...
   0.00006  -0.00001  -0.00009   0.00004   0.00003  -0.00009   0.00004   0.00003  -0.00001  -0.00002  -0.05838  -0.00001 ...
  -0.00008   0.00001  -0.00001  -0.00009   0.00004  -0.00001  -0.00008   0.00004  -0.00003   0.00000  -0.00001  -0.05839 ...
   ...  only 12  components have been written...
 Atom # 26
   0.63451  -1.82615  -0.00006   0.00029   0.00053   0.00041  -0.00201  -0.00370
  -1.82615   5.31870   0.00015  -0.00075  -0.00138  -0.00107   0.00529   0.00971
  -0.00006   0.00015  -0.33347   0.00018   0.00014   1.09678  -0.00093  -0.00072
   0.00029  -0.00075   0.00018  -0.33369  -0.00092  -0.00093   1.09793   0.00476
   0.00053  -0.00138   0.00014  -0.00092  -0.33413  -0.00072   0.00476   1.10020
   0.00041  -0.00107   1.09678  -0.00093  -0.00072  -0.96612   0.00464   0.00359
  -0.00201   0.00529  -0.00093   1.09793   0.00476   0.00464  -0.97185  -0.02370
  -0.00370   0.00971  -0.00072   0.00476   1.10020   0.00359  -0.02370  -0.98315
 
 
 Augmentation waves occupancies Rhoij:
 Atom #  1
   2.01760  -0.07009   0.00096   0.00258  -0.00562  -0.00045  -0.00145   0.00218   0.00033  -0.00042  -0.00184   0.00453 ...
  -0.07009   0.23470   0.00552  -0.00464   0.02065   0.00441   0.00494  -0.00810   0.00802   0.00267   0.00507  -0.00654 ...
   0.00096   0.00552   2.03987  -0.00131   0.00204  -0.01600  -0.00031  -0.00108   0.01333  -0.01184   0.01011   0.01682 ...
   0.00258  -0.00464  -0.00131   2.03808  -0.00778   0.00037  -0.01724   0.00301   0.01266   0.01533   0.00981   0.01207 ...
  -0.00562   0.02065   0.00204  -0.00778   2.03566  -0.00014   0.00312  -0.01449  -0.00302   0.00798  -0.00430  -0.00117 ...
  -0.00045   0.00441  -0.01600   0.00037  -0.00014   0.01350  -0.00056   0.00038  -0.00658   0.00477  -0.00508  -0.00528 ...
  -0.00145   0.00494  -0.00031  -0.01724   0.00312  -0.00056   0.01510  -0.00145  -0.00360  -0.00219  -0.00213  -0.00589 ...
   0.00218  -0.00810  -0.00108   0.00301  -0.01449   0.00038  -0.00145   0.01298   0.00365  -0.00240   0.00215   0.00103 ...
   0.00033   0.00802   0.01333   0.01266  -0.00302  -0.00658  -0.00360   0.00365   0.09143   0.00043  -0.00369  -0.00690 ...
  -0.00042   0.00267  -0.01184   0.01533   0.00798   0.00477  -0.00219  -0.00240   0.00043   0.10603  -0.00559   0.01499 ...
  -0.00184   0.00507   0.01011   0.00981  -0.00430  -0.00508  -0.00213   0.00215  -0.00369  -0.00559   0.11697   0.01031 ...
   0.00453  -0.00654   0.01682   0.01207  -0.00117  -0.00528  -0.00589   0.00103  -0.00690   0.01499   0.01031   0.14001 ...
   ...  only 12  components have been written...
 Atom # 26
   1.99562   0.01017   0.00059  -0.01011  -0.01658   0.00093  -0.00108  -0.00175
   0.01017   0.00089   0.00163  -0.00467  -0.00227   0.00006  -0.00013  -0.00017
   0.00059   0.00163   1.84768   0.01099  -0.00760   0.01516  -0.00067   0.00000
  -0.01011  -0.00467   0.01099   1.84964   0.05787  -0.00094   0.01556   0.00441
  -0.01658  -0.00227  -0.00760   0.05787   1.85017  -0.00076   0.00413   0.01766
   0.00093   0.00006   0.01516  -0.00094  -0.00076   0.00030  -0.00004  -0.00003
  -0.00108  -0.00013  -0.00067   0.01556   0.00413  -0.00004   0.00036   0.00017
  -0.00175  -0.00017   0.00000   0.00441   0.01766  -0.00003   0.00017   0.00048
 
 
================================================================================
 
 ----iterations are completed or convergence reached----
 
 Mean square residual over all n,k,spin=   65.790E-05; max=  15.678E-03
 reduced coordinates (array xred) for   26 atoms
       0.834671678950      0.895298092200      0.876022119720
       0.370851918470      0.682022295490      0.131007565930
       0.128631784300      0.318387358510      0.630087913430
       0.665242087590      0.104765948050      0.375996048430
       0.205772776820      0.202648450150      0.168519148650
       0.620225276240      0.310884174040      0.838352668200
       0.879821587610      0.689162414020      0.338579672710
       0.294295563870      0.797288773260      0.669148297760
       0.286379655610      0.402144424760      0.316022739920
       0.806334119830      0.195449398010      0.680730356790
       0.693389965600      0.803991843950      0.180856421210
       0.213190980180      0.597623106280      0.816559062880
       1.016983072200      0.134974716810      0.332323719700
       0.463580927560      0.249315778090      0.632312563710
       0.036294174028      0.751485856580      0.132185591740
       0.482282053350      0.865696645320      0.833350346620
       0.359180094940      1.027578825400      0.189783949280
       0.140638969660     -0.027696945287      0.688277224310
       0.731141828480      0.539704737800      0.835726600590
       0.769472712590      0.460092697000      0.336552488950
       0.072634911023      0.197300466020      0.956198830670
       0.799873857070      0.838573790700      0.526129829890
       0.428334125540      0.801783819180      0.457384081490
       0.700264357270      0.161369204090      0.026101441665
       0.415433969710      0.356069819250      0.991126035880
       1.085077551400      0.644084310330      0.490665279860
 rms dE/dt=  5.4259E-01; max dE/dt=  1.7673E+00; dE/dt below (all hartree)
    1       0.743654763191     -0.665941432315     -0.036224097863
    2      -0.702236712409     -0.758711559627     -0.363080377842
    3       0.575350313513      0.934366268927     -0.318828003596
    4      -0.776662289525      0.687613669297      0.385368086130
    5      -0.678971530001     -0.251843800474      1.263991092720
    6       1.767287094810     -1.488459698041     -0.029018983905
    7      -1.588445220032      1.422599896381     -0.427074706575
    8       0.340142383288      0.138740176638      1.383486120632
    9       0.042487478937      0.187765082982      0.040636919785
   10       0.577666749408     -0.556102906656     -0.422390653155
   11      -0.432219962010      0.494905413348     -0.491739770038
   12      -0.142045872573     -0.231033661188      0.174461831455
   13      -0.344822569674      0.134813042874      0.117511402820
   14      -0.145611057414      0.045179219557     -0.422737309952
   15       0.056715598211      0.104514754187     -0.303135266122
   16       0.527412600759     -0.144700279386      0.186214625099
   17       0.237957363673     -0.274900226289      0.022302052566
   18      -0.352907592999      0.279536316257     -0.013222696997
   19       0.162261956533      0.122745832425      0.102535953328
   20       0.060439721325     -0.173876554514      0.096105268376
   21      -0.335218876140      0.078908156837     -0.246113487408
   22      -0.223499888104      0.457036302450      0.281245252922
   23       0.081076520583      0.017557681750     -0.253781579975
   24       0.179107950506     -0.411030233131      0.094571195581
   25      -0.040407763350      0.437912549476     -0.052211542888
   26      -0.036091284386     -0.345283744605      0.137595551580
 
 cartesian coordinates (angstrom) at end:
    1      5.65415710734585     6.12700080466395     6.17531139855367
    2      2.40296138871995     4.76360634445024     0.92587607821712
    3      0.80309441325782     2.24225306541635     4.43957186782797
    4      4.73897221349955     0.50791279684617     2.65018686602773
    5      1.40076896868299     1.38049237826491     1.18813312115856
    6      4.33744857641296     2.00717024347042     5.90754819806244
    7      6.05652263092171     4.62730438009952     2.38905928217400
    8      1.80979041927694     5.62202581872544     4.71667354232175
    9      1.90363659226755     2.78457538813948     2.22796544193802
   10      5.71821868762277     1.10834322586971     4.79728102688984
   11      4.67315822141956     5.52079124232112     1.27808655608038
   12      1.30388734162141     4.21794594385154     5.75416305837183
   13      7.25391424967567     0.59465561065876     2.34340081305835
   14      3.23550143436651     1.62203555960441     4.45570449287847
   15     -0.02677877803547     5.38650740430836     0.93371343115440
   16      3.13418437911129     6.04455768720574     5.87390590611745
   17      2.18692554187430     7.25097710389286     1.34103299555765
   18      1.02192947635695    -0.24862210949005     4.84829907862540
   19      5.04656437928875     3.61020817174018     5.89005673479174
   20      5.35157238437163     3.02224983046488     2.37377441985463
   21      0.44774649352551     1.39410496254729     6.73611146735498
   22      5.42535511734561     5.73107774590709     3.71046872757396
   23      2.77053604527679     5.60397899178409     3.22533867467655
   24      4.96830654882397     0.90041954912829     0.18585711793292
   25      2.84936717313290     2.40814897259499     6.98338337943286
   26      7.54839115700450     4.22799963314162     3.46059697435461
 
 cartesian forces (hartree/bohr) at end:
    1     -0.05364030559435     0.04687215803511     0.00532943507991
    2      0.05351712782218     0.05940264354188     0.02985424426818
    3     -0.04730218063858    -0.07066226446586     0.02661775996959
    4      0.05353034677011    -0.04709149515037    -0.02632081764710
    5      0.04990856323436     0.02193738267365    -0.09236232560659
    6     -0.12612958862926     0.10358821943093     0.00477635680146
    7      0.11068367210685    -0.09820651509458     0.03472762115589
    8     -0.02685949579143    -0.01091512764516    -0.10130560477056
    9     -0.00508912330503    -0.01341340216771    -0.00042582411006
   10     -0.04180529532173     0.03939950028597     0.03434179184165
   11      0.02879780422806    -0.03424747771325     0.03957242184271
   12      0.01013936770324     0.01824713131943    -0.01049891884001
   13      0.02372587174638    -0.00797545383346    -0.00621043331445
   14      0.00933777310297    -0.00215972376063     0.03437692051463
   15     -0.00583159984345    -0.00733378481543     0.02539769423392
   16     -0.03964365734554     0.00923657704274    -0.01136598683381
   17     -0.01776928763133     0.01998546461962     0.00093781440680
   18      0.02376944866671    -0.01863658395572     0.00361647507966
   19     -0.01368838549505    -0.00908075044391    -0.00507627999062
   20     -0.00503813905388     0.01322606340683    -0.00460629045433
   21      0.02322051053384    -0.00389788844268     0.02110549484014
   22      0.01354139167295    -0.03224393704545    -0.01849672176454
   23     -0.00729921915655    -0.00100587521966     0.02168709924555
   24     -0.01290229772663     0.03027327763045    -0.00449776416341
   25      0.00008071444890    -0.03156450776110     0.00655744263958
   26      0.00274598349627     0.02626636952837    -0.00773160442417
 frms,max,avg= 3.9203057E-02 1.2612959E-01   1.237E-03 -6.192E-04 -2.619E-03 h/b
 
 cartesian forces (eV/Angstrom) at end:
    1     -2.75829518392277     2.41026307243713     0.27405054745789
    2      2.75196112873840     3.05460648999551     1.53516683531434
    3     -2.43237572192688    -3.63359942866930     1.36874013519164
    4      2.75264087431424    -2.42154183943861    -1.35347074832042
    5      2.56640129247064     1.12806547811636    -4.74946134392297
    6     -6.48584367690292     5.32671996554746     0.24561012127354
    7      5.69158278142590    -5.04998162508161     1.78576592959367
    8     -1.38117068989811    -0.56127838352047    -5.20934321023844
    9     -0.26169322018428    -0.68974481389046    -0.02189675429621
   10     -2.14971453780366     2.02600359344700     1.76592579021580
   11      1.48084250881254    -1.76107596314485     2.03489557666544
   12      0.52138720676500     0.93830513978478    -0.53987606804087
   13      1.22003327623298    -0.41011429101101    -0.31935329434670
   14      0.48016755857556    -0.11105745169689     1.76773217905731
   15     -0.29987289566186    -0.37711834621737     1.30600183783318
   16     -2.03855865319332     0.47496384837154    -0.58446249321024
   17     -0.91373343145882     1.02769382459609     0.04822435168890
   18      1.22227409138411    -0.95833159785832     0.18596661007951
   19     -0.70388502392614    -0.46695092315958    -0.26103279045933
   20     -0.25907150480001     0.68011146829050    -0.23686495882429
   21      1.19404656002669    -0.20043746581597     1.08528808937275
   22      0.69632629831701    -1.65804976831724    -0.95113959542539
   23     -0.37534090872200    -0.05172417910879     1.11519538786089
   24     -0.66346276902385     1.55671439534855    -0.23128431303475
   25      0.00415050349170    -1.62311211272280     0.33719722979162
   26      0.14120413686984     1.35067091371836    -0.39757505127688
 frms,max,avg= 2.0159021E+00 6.4858437E+00   6.361E-02 -3.184E-02 -1.347E-01 e/A
 length scales=  1.000000000000  1.000000000000  1.000000000000 bohr
              =  0.529177208590  0.529177208590  0.529177208590 angstroms
 Fermi (or HOMO) energy (hartree) =   0.28540   Average Vxc (hartree)=  -0.37790
 Eigenvalues (hartree) for nkpt=   4  k points:
 kpt#   1, nband=104, wtk=  0.25000, kpt=  0.2500  0.2500  0.2500 (reduced coord)
  -1.95496   -1.95491   -1.94882   -1.94878   -1.04023   -1.04011   -1.03485   -1.03472
  -1.02924   -1.02912   -1.02338   -1.02325   -1.02285   -1.02283   -1.01817   -1.01800
  -0.98877   -0.98719   -0.98616   -0.98569   -0.61796   -0.61201   -0.59805   -0.59538
  -0.58732   -0.58011   -0.57602   -0.57409   -0.56898   -0.56776   -0.56054   -0.55805
  -0.55602   -0.55113   -0.54850   -0.54661   -0.53128   -0.53047   -0.40126   -0.39957
  -0.39601   -0.39368   -0.38912   -0.38847   -0.38631   -0.38143   -0.37934   -0.37761
  -0.37257   -0.37042   -0.10946   -0.10515   -0.09856   -0.09726   -0.09302   -0.08989
  -0.08756   -0.08384   -0.08115   -0.07771   -0.07550   -0.07329   -0.07161   -0.06930
  -0.06570   -0.06283   -0.06168   -0.05761   -0.05661   -0.05211   -0.04972   -0.04814
  -0.04448   -0.04155   -0.03786   -0.03553   -0.03189   -0.03064   -0.03008   -0.02626
  -0.02500   -0.02295   -0.01752   -0.01435   -0.01240   -0.00959   -0.00903   -0.00689
  -0.00380   -0.00094    0.00322    0.00501    0.00613    0.01044    0.01325    0.01552
   0.01861    0.02004    0.02420    0.03222    0.05260    0.07719    0.11585    0.28540
 prteigrs : prtvol=0 or 1, do not print more k-points.
 

--- !EnergyTerms
iteration_state     : {dtset: 1, }
comment             : Components of total free energy in Hartree
kinetic             :  2.24505153885272E+02
hartree             :  1.85190518314814E+02
xc                  : -9.31314239996579E+01
Ewald energy        : -5.05739770211468E+02
psp_core            :  3.67001692029981E+01
local_psp           : -5.79503141829606E+02
spherical_terms     :  4.27737704910312E+01
total_energy        : -6.89204724146616E+02
total_energy_eV     : -1.87542143068790E+04
...


--- !EnergyTermsDC
iteration_state     : {dtset: 1, }
comment             : '"Double-counting" decomposition of free energy'
band_energy         : -8.07846219272065E+01
Ewald energy        : -5.05739770211468E+02
psp_core            :  3.67001692029981E+01
xc_dc               : -1.56768429654023E+02
spherical_terms     :  7.06740960265034E+00
total_energy_dc     : -6.99525242987049E+02
total_energy_dc_eV  : -1.90350499066804E+04
...

 
 Cartesian components of stress tensor (hartree/bohr^3)
  sigma(1 1)= -2.95281643E-03  sigma(3 2)=  9.03129858E-06
  sigma(2 2)= -3.01688511E-03  sigma(3 1)=  3.91644550E-05
  sigma(3 3)= -2.80374581E-03  sigma(2 1)=  1.92127239E-04
 
-Cartesian components of stress tensor (GPa)         [Pressure=  8.6041E+01 GPa]
- sigma(1 1)= -8.68748442E+01  sigma(3 2)=  2.65709933E-01
- sigma(2 2)= -8.87598093E+01  sigma(3 1)=  1.15225785E+00
- sigma(3 3)= -8.24890358E+01  sigma(2 1)=  5.65257757E+00
 
== END DATASET(S) ==============================================================
================================================================================
  
 -outvars: echo values of variables after computation  --------
-          iomode           1
            acell      1.0000000000E+00  1.0000000000E+00  1.0000000000E+00 Bohr
              amu      1.38905500E+02  9.59400000E+01  1.59994000E+01
        autoparal           1
           bandpp          26
     densfor_pred           6
           diemac      4.00000000E+00
             ecut      3.00000000E+01 Hartree
           ecutsm      5.00000000E-01 Hartree
           etotal     -6.8920472415E+02
            fcart     -5.3640305594E-02  4.6872158035E-02  5.3294350799E-03
                       5.3517127822E-02  5.9402643542E-02  2.9854244268E-02
                      -4.7302180639E-02 -7.0662264466E-02  2.6617759970E-02
                       5.3530346770E-02 -4.7091495150E-02 -2.6320817647E-02
                       4.9908563234E-02  2.1937382674E-02 -9.2362325607E-02
                      -1.2612958863E-01  1.0358821943E-01  4.7763568015E-03
                       1.1068367211E-01 -9.8206515095E-02  3.4727621156E-02
                      -2.6859495791E-02 -1.0915127645E-02 -1.0130560477E-01
                      -5.0891233050E-03 -1.3413402168E-02 -4.2582411006E-04
                      -4.1805295322E-02  3.9399500286E-02  3.4341791842E-02
                       2.8797804228E-02 -3.4247477713E-02  3.9572421843E-02
                       1.0139367703E-02  1.8247131319E-02 -1.0498918840E-02
                       2.3725871746E-02 -7.9754538335E-03 -6.2104333144E-03
                       9.3377731030E-03 -2.1597237606E-03  3.4376920515E-02
                      -5.8315998435E-03 -7.3337848154E-03  2.5397694234E-02
                      -3.9643657346E-02  9.2365770427E-03 -1.1365986834E-02
                      -1.7769287631E-02  1.9985464620E-02  9.3781440680E-04
                       2.3769448667E-02 -1.8636583956E-02  3.6164750797E-03
                      -1.3688385495E-02 -9.0807504439E-03 -5.0762799906E-03
                      -5.0381390539E-03  1.3226063407E-02 -4.6062904543E-03
                       2.3220510534E-02 -3.8978884427E-03  2.1105494840E-02
                       1.3541391673E-02 -3.2243937045E-02 -1.8496721765E-02
                      -7.2992191565E-03 -1.0058752197E-03  2.1687099246E-02
                      -1.2902297727E-02  3.0273277630E-02 -4.4977641634E-03
                       8.0714448897E-05 -3.1564507761E-02  6.5574426396E-03
                       2.7459834963E-03  2.6266369528E-02 -7.7316044242E-03
-          fftalg         401
             iscf           7
              ixc     -116133
              kpt      2.50000000E-01  2.50000000E-01  2.50000000E-01
                      -2.50000000E-01  2.50000000E-01  2.50000000E-01
                       2.50000000E-01 -2.50000000E-01  2.50000000E-01
                      -2.50000000E-01 -2.50000000E-01  2.50000000E-01
         kptrlatt        2    0    0      0    2    0      0    0    2
          kptrlen      2.66217830E+01
P           mkmem           1
            natom          26
            nband         104
            ngfft          72      75      75
          ngfftdg          72      75      75
             nkpt           4
-           npfft           5
-           npkpt           4
            nstep           1
             nsym           1
           ntypat           3
              occ      2.000000  2.000000  2.000000  2.000000  2.000000  2.000000
                       2.000000  2.000000  2.000000  2.000000  2.000000  2.000000
                       2.000000  2.000000  2.000000  2.000000  2.000000  2.000000
                       2.000000  2.000000  2.000000  2.000000  2.000000  2.000000
                       2.000000  2.000000  2.000000  2.000000  2.000000  2.000000
                       2.000000  2.000000  2.000000  2.000000  2.000000  2.000000
                       2.000000  2.000000  2.000000  2.000000  2.000000  2.000000
                       2.000000  2.000000  2.000000  2.000000  2.000000  2.000000
                       2.000000  2.000000  2.000000  2.000000  2.000000  2.000000
                       2.000000  2.000000  2.000000  2.000000  2.000000  2.000000
                       2.000000  2.000000  2.000000  2.000000  2.000000  2.000000
                       2.000000  2.000000  2.000000  2.000000  2.000000  2.000000
                       2.000000  2.000000  2.000000  2.000000  2.000000  2.000000
                       2.000000  2.000000  2.000000  2.000000  2.000000  2.000000
                       2.000000  2.000000  2.000000  2.000000  2.000000  2.000000
                       2.000000  2.000000  2.000000  2.000000  2.000000  2.000000
                       2.000000  2.000000  2.000000  2.000000  2.000000  2.000000
                       2.000000  2.000000
        paral_kgb           1
        pawecutdg      3.00000000E+01 Hartree
         pawmixdg           1
         pawxcdev           0
           prtcif           1
           prteig           0
            rprim      1.3574019889E+01 -6.9925850306E-01  3.9303766765E-03
                      -7.2345261645E-01  1.3577798370E+01  6.4036056348E-03
                       3.0412725580E-03  6.6526049057E-03  1.3310889481E+01
           shiftk      5.00000000E-01  5.00000000E-01  5.00000000E-01
          spgroup           1
           strten     -2.9528164335E-03 -3.0168851061E-03 -2.8037458114E-03
                       9.0312985846E-06  3.9164455025E-05  1.9212723902E-04
           tolvrs      1.00000000E-20
            typat      1  1  1  1  2  2  2  2  3  3  3  3  3  3  3  3  3  3  3  3
                       3  3  3  3  3  3
           useylm           1
         wfoptalg         114
              wtk        0.25000    0.25000    0.25000    0.25000
           xangst      5.6541571073E+00  6.1270008047E+00  6.1753113986E+00
                       2.4029613887E+00  4.7636063445E+00  9.2587607822E-01
                       8.0309441326E-01  2.2422530654E+00  4.4395718678E+00
                       4.7389722135E+00  5.0791279685E-01  2.6501868660E+00
                       1.4007689687E+00  1.3804923783E+00  1.1881331212E+00
                       4.3374485764E+00  2.0071702435E+00  5.9075481981E+00
                       6.0565226309E+00  4.6273043801E+00  2.3890592822E+00
                       1.8097904193E+00  5.6220258187E+00  4.7166735423E+00
                       1.9036365923E+00  2.7845753881E+00  2.2279654419E+00
                       5.7182186876E+00  1.1083432259E+00  4.7972810269E+00
                       4.6731582214E+00  5.5207912423E+00  1.2780865561E+00
                       1.3038873416E+00  4.2179459439E+00  5.7541630584E+00
                       7.2539142497E+00  5.9465561066E-01  2.3434008131E+00
                       3.2355014344E+00  1.6220355596E+00  4.4557044929E+00
                      -2.6778778035E-02  5.3865074043E+00  9.3371343115E-01
                       3.1341843791E+00  6.0445576872E+00  5.8739059061E+00
                       2.1869255419E+00  7.2509771039E+00  1.3410329956E+00
                       1.0219294764E+00 -2.4862210949E-01  4.8482990786E+00
                       5.0465643793E+00  3.6102081717E+00  5.8900567348E+00
                       5.3515723844E+00  3.0222498305E+00  2.3737744199E+00
                       4.4774649353E-01  1.3941049625E+00  6.7361114674E+00
                       5.4253551173E+00  5.7310777459E+00  3.7104687276E+00
                       2.7705360453E+00  5.6039789918E+00  3.2253386747E+00
                       4.9683065488E+00  9.0041954913E-01  1.8585711793E-01
                       2.8493671731E+00  2.4081489726E+00  6.9833833794E+00
                       7.5483911570E+00  4.2279996331E+00  3.4605969744E+00
            xcart      1.0684808445E+01  1.1578353537E+01  1.1669647329E+01
                       4.5409389326E+00  9.0019113959E+00  1.7496522208E+00
                       1.5176284999E+00  4.2372442143E+00  8.3895749775E+00
                       8.9553596349E+00  9.5981608543E-01  5.0081273778E+00
                       2.6470697263E+00  2.6087525235E+00  2.2452462084E+00
                       8.1965899249E+00  3.7930020622E+00  1.1163648211E+01
                       1.1445169090E+01  8.7443380119E+00  4.5146677585E+00
                       3.4200082504E+00  1.0624089109E+01  8.9132212532E+00
                       3.5973518159E+00  5.2620848800E+00  4.2102445188E+00
                       1.0805867288E+01  2.0944651581E+00  9.0655473233E+00
                       8.8309892141E+00  1.0432783485E+01  2.4152335651E+00
                       2.4639899838E+00  7.9707626772E+00  1.0873792304E+01
                       1.3707911323E+01  1.1237362475E+00  4.4283857563E+00
                       6.1142116135E+00  3.0652029855E+00  8.4200612206E+00
                      -5.0604556660E-02  1.0179023807E+01  1.7644626715E+00
                       5.9227501265E+00  1.1422558623E+01  1.1100073493E+01
                       4.1326903472E+00  1.3702360922E+01  2.5341850968E+00
                       1.9311668374E+00 -4.6982769752E-01  9.1619574689E+00
                       9.5366245888E+00  6.8223047273E+00  1.1130594136E+01
                       1.0113006187E+01  5.7112244847E+00  4.4857835548E+00
                       8.4611824972E-01  2.6344765797E+00  1.2729405874E+01
                       1.0252435345E+01  1.0830167386E+01  7.0117697198E+00
                       5.2355543669E+00  1.0589985549E+01  6.0950067809E+00
                       9.3887387215E+00  1.7015463525E+00  3.5121905274E-01
                       5.3845236093E+00  4.5507420454E+00  1.3196682068E+01
                       1.4264392031E+01  7.9897613966E+00  6.5395805378E+00
             xred      8.3467167895E-01  8.9529809220E-01  8.7602211972E-01
                       3.7085191847E-01  6.8202229549E-01  1.3100756593E-01
                       1.2863178430E-01  3.1838735851E-01  6.3008791343E-01
                       6.6524208759E-01  1.0476594805E-01  3.7599604843E-01
                       2.0577277682E-01  2.0264845015E-01  1.6851914865E-01
                       6.2022527624E-01  3.1088417404E-01  8.3835266820E-01
                       8.7982158761E-01  6.8916241402E-01  3.3857967271E-01
                       2.9429556387E-01  7.9728877326E-01  6.6914829776E-01
                       2.8637965561E-01  4.0214442476E-01  3.1602273992E-01
                       8.0633411983E-01  1.9544939801E-01  6.8073035679E-01
                       6.9338996560E-01  8.0399184395E-01  1.8085642121E-01
                       2.1319098018E-01  5.9762310628E-01  8.1655906288E-01
                       1.0169830722E+00  1.3497471681E-01  3.3232371970E-01
                       4.6358092756E-01  2.4931577809E-01  6.3231256371E-01
                       3.6294174028E-02  7.5148585658E-01  1.3218559174E-01
                       4.8228205335E-01  8.6569664532E-01  8.3335034662E-01
                       3.5918009494E-01  1.0275788254E+00  1.8978394928E-01
                       1.4063896966E-01 -2.7696945287E-02  6.8827722431E-01
                       7.3114182848E-01  5.3970473780E-01  8.3572660059E-01
                       7.6947271259E-01  4.6009269700E-01  3.3655248895E-01
                       7.2634911023E-02  1.9730046602E-01  9.5619883067E-01
                       7.9987385707E-01  8.3857379070E-01  5.2612982989E-01
                       4.2833412554E-01  8.0178381918E-01  4.5738408149E-01
                       7.0026435727E-01  1.6136920409E-01  2.6101441665E-02
                       4.1543396971E-01  3.5606981925E-01  9.9112603588E-01
                       1.0850775514E+00  6.4408431033E-01  4.9066527986E-01
            znucl       57.00000   42.00000    8.00000
 
================================================================================


- Timing analysis has been suppressed with timopt=0



================================================================================

 Suggested references for the acknowledgment of ABINIT usage.

 The users of ABINIT have little formal obligations with respect to the ABINIT group
 (those specified in the GNU General Public License, http://www.gnu.org/copyleft/gpl.txt).
 However, it is common practice in the scientific literature,
 to acknowledge the efforts of people that have made the research possible.
 In this spirit, please find below suggested citations of work written by ABINIT developers,
 corresponding to implementations inside of ABINIT that you have used in the present run.
 Note also that it will be of great value to readers of publications presenting these results,
 to read papers enabling them to understand the theoretical formalism and details
 of the ABINIT implementation.
 For information on why they are suggested, see also https://docs.abinit.org/theory/acknowledgments.
-
- [1] Implementation of the Projector Augmented-Wave Method in the ABINIT code.
- M. Torrent, F. Jollet, F. Bottin, G. Zerah, and X. Gonze Comput. Mat. Science 42, 337, (2008).
- Comment: PAW calculations. Strong suggestion to cite this paper.
- DOI and bibtex: see https://docs.abinit.org/theory/bibliography/#torrent2008
-
- [2] Libxc: A library of exchange and correlation functionals for density functional theory.
- M.A.L. Marques, M.J.T. Oliveira, T. Burnus, Computer Physics Communications 183, 2227 (2012).
- Comment: to be cited when LibXC is used (negative value of ixc)
- Strong suggestion to cite this paper.
- DOI and bibtex: see https://docs.abinit.org/theory/bibliography/#marques2012
-
- [3] Large scale ab initio calculations based on three levels of parallelization
- F. Bottin, S. Leroux, A. Knyazev, G. Zerah, Comput. Mat. Science 42, 329, (2008).
- Comment: in case LOBPCG algorithm is used (wfoptalg=4/14/114).
- Strong suggestion to cite this paper in your publications.
- This paper is also available at http://www.arxiv.org/abs/0707.3405
- DOI and bibtex: see https://docs.abinit.org/theory/bibliography/#bottin2008
-
- [4] The Abinit project: Impact, environment and recent developments.
- Computer Phys. Comm. 248, 107042 (2020).
- X.Gonze, B. Amadon, G. Antonius, F.Arnardi, L.Baguet, J.-M.Beuken,
- J.Bieder, F.Bottin, J.Bouchet, E.Bousquet, N.Brouwer, F.Bruneval,
- G.Brunin, T.Cavignac, J.-B. Charraud, Wei Chen, M.Cote, S.Cottenier,
- J.Denier, G.Geneste, Ph.Ghosez, M.Giantomassi, Y.Gillet, O.Gingras,
- D.R.Hamann, G.Hautier, Xu He, N.Helbig, N.Holzwarth, Y.Jia, F.Jollet,
- W.Lafargue-Dit-Hauret, K.Lejaeghere, M.A.L.Marques, A.Martin, C.Martins,
- H.P.C. Miranda, F.Naccarato, K. Persson, G.Petretto, V.Planes, Y.Pouillon,
- S.Prokhorenko, F.Ricci, G.-M.Rignanese, A.H.Romero, M.M.Schmitt, M.Torrent,
- M.J.van Setten, B.Van Troeye, M.J.Verstraete, G.Zerah and J.W.Zwanzig
- Comment: the fifth generic paper describing the ABINIT project.
- Note that a version of this paper, that is not formatted for Computer Phys. Comm. 
- is available at https://www.abinit.org/sites/default/files/ABINIT20.pdf .
- The licence allows the authors to put it on the Web.
- DOI and bibtex: see https://docs.abinit.org/theory/bibliography/#gonze2020
-
- [5] ABINIT: Overview, and focus on selected capabilities
- J. Chem. Phys. 152, 124102 (2020).
- A. Romero, D.C. Allan, B. Amadon, G. Antonius, T. Applencourt, L.Baguet,
- J.Bieder, F.Bottin, J.Bouchet, E.Bousquet, F.Bruneval,
- G.Brunin, D.Caliste, M.Cote,
- J.Denier, C. Dreyer, Ph.Ghosez, M.Giantomassi, Y.Gillet, O.Gingras,
- D.R.Hamann, G.Hautier, F.Jollet, G. Jomard,
- A.Martin, 
- H.P.C. Miranda, F.Naccarato, G.Petretto, N.A. Pike, V.Planes,
- S.Prokhorenko, T. Rangel, F.Ricci, G.-M.Rignanese, M.Royo, M.Stengel, M.Torrent,
- M.J.van Setten, B.Van Troeye, M.J.Verstraete, J.Wiktor, J.W.Zwanziger, and X.Gonze.
- Comment: a global overview of ABINIT, with focus on selected capabilities .
- Note that a version of this paper, that is not formatted for J. Chem. Phys 
- is available at https://www.abinit.org/sites/default/files/ABINIT20_JPC.pdf .
- The licence allows the authors to put it on the Web.
- DOI and bibtex: see https://docs.abinit.org/theory/bibliography/#romero2020
-
- [6] Recent developments in the ABINIT software package.
- Computer Phys. Comm. 205, 106 (2016).
- X.Gonze, F.Jollet, F.Abreu Araujo, D.Adams, B.Amadon, T.Applencourt,
- C.Audouze, J.-M.Beuken, J.Bieder, A.Bokhanchuk, E.Bousquet, F.Bruneval
- D.Caliste, M.Cote, F.Dahm, F.Da Pieve, M.Delaveau, M.Di Gennaro,
- B.Dorado, C.Espejo, G.Geneste, L.Genovese, A.Gerossier, M.Giantomassi,
- Y.Gillet, D.R.Hamann, L.He, G.Jomard, J.Laflamme Janssen, S.Le Roux,
- A.Levitt, A.Lherbier, F.Liu, I.Lukacevic, A.Martin, C.Martins,
- M.J.T.Oliveira, S.Ponce, Y.Pouillon, T.Rangel, G.-M.Rignanese,
- A.H.Romero, B.Rousseau, O.Rubel, A.A.Shukri, M.Stankovski, M.Torrent,
- M.J.Van Setten, B.Van Troeye, M.J.Verstraete, D.Waroquier, J.Wiktor,
- B.Xu, A.Zhou, J.W.Zwanziger.
- Comment: the fourth generic paper describing the ABINIT project.
- Note that a version of this paper, that is not formatted for Computer Phys. Comm. 
- is available at https://www.abinit.org/sites/default/files/ABINIT16.pdf .
- The licence allows the authors to put it on the Web.
- DOI and bibtex: see https://docs.abinit.org/theory/bibliography/#gonze2016
-
- Proc.   0 individual time (sec): cpu=         17.8  wall=         19.7
 
================================================================================
 
 Calculation completed.
.Delivered   1 WARNINGs and   0 COMMENTs to log file.
+Overall time at end (sec) : cpu=        382.3  wall=        391.8
