
.Version 9.3.2 of ABINIT 
.(MPI version, prepared for a x86_64_linux_intel19.1 computer) 

.Copyright (C) 1998-2020 ABINIT group . 
 ABINIT comes with ABSOLUTELY NO WARRANTY.
 It is free software, and you are welcome to redistribute it
 under certain conditions (GNU General Public License,
 see ~abinit/COPYING or http://www.gnu.org/copyleft/gpl.txt).

 ABINIT is a project of the Universite Catholique de Louvain,
 Corning Inc. and other collaborators, see ~abinit/doc/developers/contributors.txt .
 Please read https://docs.abinit.org/theory/acknowledgments for suggested
 acknowledgments of the ABINIT effort.
 For more information, see https://www.abinit.org .

.Starting date : Wed  5 May 2021.
- ( at 16h56 )
  
- input  file    -> abi.in
- output file    -> abi.out
- root for input  files -> abi-i
- root for output files -> abi-o
 
- inpspheads : Reading pseudopotential header in XML form from 
-   ~/ABINIT_PAW_PBE/paw_pbe_standard/La.xml
- inpspheads : Reading pseudopotential header in XML form from 
-   ~/ABINIT_PAW_PBE/paw_pbe_standard/Mo.xml
- inpspheads : Reading pseudopotential header in XML form from 
-   ~/ABINIT_PAW_PBE/paw_pbe_standard/O.xml
 
 DATASET    1 : space group P2_1 (#  4); Bravais mP (primitive monocl.)
================================================================================
 Values of the parameters that define the memory need for DATASET  1.
     intxc =       0    ionmov =       0      iscf =       7    lmnmax =      32
     lnmax =       8     mgfft =      75  mpssoang =       4    mqgrid =    3334
     natom =      26  nloc_mem =       2    nspden =       1   nspinor =       1
    nsppol =       1      nsym =       2    n1xccc =       1    ntypat =       3
    occopt =       1   xclevel =       2
-    mband =         104        mffmem =           1         mkmem =           2
       mpw =        1214          nfft =       27000          nkpt =           8
Pmy_natom=         7
 PAW method is used; the additional fine FFT grid is defined by:
   mgfftf=        75    nfftf =     27000
================================================================================
P This job should need less than                      45.432 Mbytes of memory.
  Rough estimation (10% accuracy) of disk space for files :
_ WF disk file :    231.184 Mbytes ; DEN or POT disk file :      0.208 Mbytes.
================================================================================
 
 
 DATASET    2 : space group P2_1 (#  4); Bravais mP (primitive monocl.)
================================================================================
 Values of the parameters that define the memory need for DATASET  2.
     intxc =       0    ionmov =       0      iscf =       7    lmnmax =      32
     lnmax =       8     mgfft =      75  mpssoang =       4    mqgrid =    3334
     natom =      26  nloc_mem =       2    nspden =       1   nspinor =       1
    nsppol =       1      nsym =       2    n1xccc =       1    ntypat =       3
    occopt =       1   xclevel =       2
-    mband =         104        mffmem =           1         mkmem =           2
       mpw =        1214          nfft =       27000          nkpt =           8
Pmy_natom=         7
 PAW method is used; the additional fine FFT grid is defined by:
   mgfftf=        75    nfftf =     27000
================================================================================
P This job should need less than                      45.432 Mbytes of memory.
  Rough estimation (10% accuracy) of disk space for files :
_ WF disk file :    231.184 Mbytes ; DEN or POT disk file :      0.208 Mbytes.
================================================================================
 
--------------------------------------------------------------------------------
------------- Echo of variables that govern the present computation ------------
--------------------------------------------------------------------------------
-
- outvars: echo of selected default values                                      
-   iomode0 =  0 , fftalg0 =512 , wfoptalg0 = 10
-
- outvars: echo of global parameters not present in the input file              
-  max_nthreads =    1
-
 -outvars: echo values of preprocessed input variables --------
-          iomode           1
            acell      1.3520423563E+01  1.3520423563E+01  1.3520423563E+01 Bohr
              amu      1.38905500E+02  9.59400000E+01  1.59994000E+01
        autoparal           1
           bandpp          26
     densfor_pred           6
           diemac      4.00000000E+00
             ecut      3.00000000E+01 Hartree
-          fftalg         401
           getwfk1          0
           getwfk2         -1
             iscf           7
           istwfk        2    1    1    1    1    1    1    1
              ixc     -116133
           jdtset        1    2
              kpt      0.00000000E+00  0.00000000E+00  0.00000000E+00
                       5.00000000E-01  0.00000000E+00  0.00000000E+00
                       0.00000000E+00  5.00000000E-01  0.00000000E+00
                       5.00000000E-01  5.00000000E-01  0.00000000E+00
                       0.00000000E+00  0.00000000E+00  5.00000000E-01
                       5.00000000E-01  0.00000000E+00  5.00000000E-01
                       0.00000000E+00  5.00000000E-01  5.00000000E-01
                       5.00000000E-01  5.00000000E-01  5.00000000E-01
         kptrlatt        2    0    0      0    2    0      0    0    2
          kptrlen      2.70408471E+01
P           mkmem           2
            natom          26
            nband         104
           ndtset           2
            ngfft          72      75      75
          ngfftdg          72      75      75
             nkpt           8
-           npfft          15
-           npkpt           4
            nstep1        100
            nstep2        250
             nsym           2
           ntypat           3
              occ      2.000000  2.000000  2.000000  2.000000  2.000000  2.000000
                       2.000000  2.000000  2.000000  2.000000  2.000000  2.000000
                       2.000000  2.000000  2.000000  2.000000  2.000000  2.000000
                       2.000000  2.000000  2.000000  2.000000  2.000000  2.000000
                       2.000000  2.000000  2.000000  2.000000  2.000000  2.000000
                       2.000000  2.000000  2.000000  2.000000  2.000000  2.000000
                       2.000000  2.000000  2.000000  2.000000  2.000000  2.000000
                       2.000000  2.000000  2.000000  2.000000  2.000000  2.000000
                       2.000000  2.000000  2.000000  2.000000  2.000000  2.000000
                       2.000000  2.000000  2.000000  2.000000  2.000000  2.000000
                       2.000000  2.000000  2.000000  2.000000  2.000000  2.000000
                       2.000000  2.000000  2.000000  2.000000  2.000000  2.000000
                       2.000000  2.000000  2.000000  2.000000  2.000000  2.000000
                       2.000000  2.000000  2.000000  2.000000  2.000000  2.000000
                       2.000000  2.000000  2.000000  2.000000  2.000000  2.000000
                       2.000000  2.000000  2.000000  2.000000  2.000000  2.000000
                       2.000000  2.000000  2.000000  2.000000  2.000000  2.000000
                       2.000000  2.000000
        paral_kgb           1
        pawecutdg      3.00000000E+01 Hartree
         pawmixdg           1
         pawxcdev           0
           prtcif           1
           prteig           0
          spgroup           4
           symrel      1  0  0   0  1  0   0  0  1       1  0  0   0 -1  0   0  0 -1
            tnons      0.0000000  0.0000000  0.0000000     0.5000000  0.5000000  0.0000000
           tolvrs1     1.00000000E-20
           tolvrs2     0.00000000E+00
           tolwfr1     0.00000000E+00
           tolwfr2     1.00000000E-20
            typat      1  1  1  1  2  2  2  2  3  3  3  3  3  3  3  3  3  3  3  3
                       3  3  3  3  3  3
           useylm           1
         wfoptalg         114
              wtk        0.12500    0.12500    0.12500    0.12500    0.12500    0.12500
                         0.12500    0.12500
           xangst      6.2222228669E+00  6.3523874117E+00  5.8994708958E+00
                       2.6448728669E+00  4.3796625883E+00  1.2552291042E+00
                       9.8486443042E-01  2.4094998957E+00  4.4537032201E+00
                       4.5622144304E+00  1.1678501043E+00  2.7009967799E+00
                       1.1591824834E+00  8.6711288123E-01  1.3585250783E+00
                       4.7365324834E+00  2.7102371188E+00  5.7961749217E+00
                       5.9272254018E+00  5.0170163869E+00  2.0669842177E+00
                       2.3498754018E+00  5.7150336131E+00  5.0877157823E+00
                       2.3186723195E+00  2.1745919101E+00  2.2211683153E+00
                       5.8960223195E+00  1.4027580899E+00  4.9335316847E+00
                       4.8605706353E+00  5.5827262802E+00  7.2079513339E-01
                       1.2832206353E+00  5.1493237198E+00  6.4339048666E+00
                       7.0391531021E+00  1.5363464129E+00  2.5273275153E+00
                       3.4618031021E+00  2.0410035871E+00  4.6273724847E+00
                       3.1543402600E-01  4.1764762260E+00  1.9220878891E+00
                       3.8927840260E+00  6.5555737740E+00  5.2326121109E+00
                       2.5444400484E+00  6.8408979496E+00  1.6978357534E+00
                       1.2464535244E+00 -1.0269226466E-01  4.6040649138E+00
                       6.1217900484E+00  3.8911520504E+00  5.4568642466E+00
                       4.8238035244E+00  3.6800422647E+00  2.5506350862E+00
                       1.1554957864E+00  1.6146631814E+00  6.9086317877E+00
                       5.8103711487E+00  6.1721302967E+00  3.4068979285E+00
                       2.2330211487E+00  4.5599197033E+00  3.7478020715E+00
                       4.7328457864E+00  1.9626868186E+00  2.4606821234E-01
                      -5.4368273237E-02 -5.0904860218E-01  1.0279682078E+00
                       3.5229817268E+00  4.0863986022E+00  6.1267317922E+00
            xcart      1.1758297156E+01  1.2004272498E+01  1.1148384322E+01
                       4.9980853748E+00  8.2763628462E+00  2.3720392410E+00
                       1.8611240515E+00  4.5532949200E+00  8.4162793631E+00
                       8.6213358330E+00  2.2069168615E+00  5.1041441999E+00
                       2.1905374316E+00  1.6386058718E+00  2.5672403426E+00
                       8.9507492131E+00  5.1216059097E+00  1.0953183220E+01
                       1.1200832737E+01  9.4807869754E+00  3.9060340925E+00
                       4.4406209558E+00  1.0799848369E+01  9.6143894704E+00
                       4.3816556757E+00  4.1093831609E+00  4.1973998109E+00
                       1.1141867457E+01  2.6508286206E+00  9.3230237521E+00
                       9.1851473502E+00  1.0549823744E+01  1.3621054000E+00
                       2.4249355687E+00  9.7308116000E+00  1.2158318163E+01
                       1.3302071570E+01  2.9032739656E+00  4.7759568520E+00
                       6.5418597889E+00  3.8569378158E+00  8.7444667110E+00
                       5.9608392214E-01  7.8923962676E+00  3.6322197137E+00
                       7.3562957036E+00  1.2388239077E+01  9.8882038493E+00
                       4.8082948530E+00  1.2927423628E+01  3.2084445925E+00
                       2.3554557986E+00 -1.9406025617E-01  8.7004217851E+00
                       1.1568506634E+01  7.3532117166E+00  1.0311978970E+01
                       9.1156675800E+00  6.9542720376E+00  4.8200017778E+00
                       2.1835705839E+00  3.0512712097E+00  1.3055422032E+01
                       1.0980010202E+01  1.1663635917E+01  6.4381040476E+00
                       4.2197984200E+00  8.6169994273E+00  7.0823195153E+00
                       8.9437823654E+00  3.7089405718E+00  4.6500153134E-01
                      -1.0274114674E-01 -9.6196244645E-01  1.9425783861E+00
                       6.6574706347E+00  7.7221742279E+00  1.1577845177E+01
             xred      8.6966928969E-01  8.8786216218E-01  8.2455880691E-01
                       3.6966928969E-01  6.1213783782E-01  1.7544119309E-01
                       1.3765279193E-01  3.3677161805E-01  6.2248636841E-01
                       6.3765279193E-01  1.6322838195E-01  3.7751363159E-01
                       1.6201692361E-01  1.2119486229E-01  1.8987869209E-01
                       6.6201692361E-01  3.7880513771E-01  8.1012130791E-01
                       8.2843800604E-01  7.0121967195E-01  2.8889879628E-01
                       3.2843800604E-01  7.9878032805E-01  7.1110120372E-01
                       3.2407680538E-01  3.0393893666E-01  3.1044883996E-01
                       8.2407680538E-01  1.9606106334E-01  6.8955116004E-01
                       6.7935352080E-01  7.8028796179E-01  1.0074428465E-01
                       1.7935352080E-01  7.1971203821E-01  8.9925571535E-01
                       9.8385021064E-01  2.1473247137E-01  3.5324017992E-01
                       4.8385021064E-01  2.8526752863E-01  6.4675982008E-01
                       4.4087666290E-02  5.8373883265E-01  2.6864688793E-01
                       5.4408766629E-01  9.1626116735E-01  7.3135311207E-01
                       3.5563196897E-01  9.5614043211E-01  2.3730355618E-01
                       1.7421464554E-01 -1.4353119580E-02  6.4350216135E-01
                       8.5563196897E-01  5.4385956789E-01  7.6269644382E-01
                       6.7421464554E-01  5.1435311958E-01  3.5649783865E-01
                       1.6150164037E-01  2.2567867016E-01  9.6560747308E-01
                       8.1210548992E-01  8.6266793809E-01  4.7617620984E-01
                       3.1210548992E-01  6.3733206191E-01  5.2382379016E-01
                       6.6150164037E-01  2.7432132984E-01  3.4392526918E-02
                      -7.5989591788E-03 -7.1148839529E-02  1.4367733208E-01
                       4.9240104082E-01  5.7114883953E-01  8.5632266792E-01
            znucl       57.00000   42.00000    8.00000
 
================================================================================
 
 chkinp: Checking input parameters for consistency, jdtset=   1.
 
 chkinp: Checking input parameters for consistency, jdtset=   2.
 
================================================================================
== DATASET  1 ==================================================================
-   mpi_nproc: 60, omp_nthreads: 1 (-1 if OMP is not activated)
 

--- !DatasetInfo
iteration_state: {dtset: 1, }
dimensions: {natom: 26, nkpt: 8, mband: 104, nsppol: 1, nspinor: 1, nspden: 1, mpw: 1214, }
cutoff_energies: {ecut:  30.0, pawecutdg:  30.0, }
electrons: {nelect:   2.08000000E+02, charge:   0.00000000E+00, occopt:   1.00000000E+00, tsmear:   1.00000000E-02, }
meta: {optdriver: 0, ionmov: 0, optcell: 0, iscf: 7, paral_kgb: 1, }
...

 Real(R)+Recip(G) space primitive vectors, cartesian coordinates (Bohr,Bohr^-1):
 R(1)= 13.5204236  0.0000000  0.0000000  G(1)=  0.0739622  0.0000000  0.0000000
 R(2)=  0.0000000 13.5204236  0.0000000  G(2)=  0.0000000  0.0739622  0.0000000
 R(3)=  0.0000000  0.0000000 13.5204236  G(3)=  0.0000000  0.0000000  0.0739622
 Unit cell volume ucvol=  2.4715585E+03 bohr^3
 Angles (23,13,12)=  9.00000000E+01  9.00000000E+01  9.00000000E+01 degrees
 
 Coarse grid specifications (used for wave-functions):
 
 getcut: wavevector=  0.0000  0.0000  0.0000  ngfft=  72  75  75
         ecut(hartree)=     30.000   => boxcut(ratio)=   2.15981
 
 Fine grid specifications (used for densities):
 
 getcut: wavevector=  0.0000  0.0000  0.0000  ngfft=  72  75  75
         ecut(hartree)=     30.000   => boxcut(ratio)=   2.15981
 
--- Pseudopotential description ------------------------------------------------
- pspini: atom type   1  psp file is ~/ABINIT_PAW_PBE/paw_pbe_standard/La.xml
- pspatm: opening atomic psp file    ~/ABINIT_PAW_PBE/paw_pbe_standard/La.xml
- pspatm : Reading pseudopotential header in XML form from ~/ABINIT_PAW_PBE/paw_pbe_standard/La.xml
 Pseudopotential format is: paw10
 basis_size (lnmax)=  8 (lmn_size= 32), orbitals=   0   0   1   1   2   2   3   3
 Spheres core radius: rc_sph= 2.51647158
 1 radial meshes are used:
  - mesh 1: r(i)=AA*[exp(BB*(i-1))-1], size=1500 , AA= 0.15403E-03 BB= 0.87795E-02
 Shapefunction is SIN type: shapef(r)=[sin(pi*r/rshp)/(pi*r/rshp)]**2
 Radius for shape functions =  2.30494653
 mmax= 1500
 Radial grid used for partial waves is grid 1
 Radial grid used for projectors is grid 1
 Radial grid used for (t)core density is grid 1
 Radial grid used for Vloc is grid 1
 Radial grid used for pseudo valence density is grid 1
 Mesh size for Vloc has been set to 1342 to avoid numerical noise.
 Compensation charge density is not taken into account in XC energy/potential
 pspatm: atomic psp has been read  and splines computed
 
- pspini: atom type   2  psp file is ~/ABINIT_PAW_PBE/paw_pbe_standard/Mo.xml
- pspatm: opening atomic psp file    ~/ABINIT_PAW_PBE/paw_pbe_standard/Mo.xml
- pspatm : Reading pseudopotential header in XML form from ~/ABINIT_PAW_PBE/paw_pbe_standard/Mo.xml
 Pseudopotential format is: paw10
 basis_size (lnmax)=  6 (lmn_size= 18), orbitals=   0   0   1   1   2   2
 Spheres core radius: rc_sph= 2.20000000
 1 radial meshes are used:
  - mesh 1: r(i)=AA*[exp(BB*(i-1))-1], size= 846 , AA= 0.34789E-03 BB= 0.14611E-01
 Shapefunction is SIN type: shapef(r)=[sin(pi*r/rshp)/(pi*r/rshp)]**2
 Radius for shape functions =  1.90088266
 mmax=  846
 Radial grid used for partial waves is grid 1
 Radial grid used for projectors is grid 1
 Radial grid used for (t)core density is grid 1
 Radial grid used for Vloc is grid 1
 Radial grid used for pseudo valence density is grid 1
 Mesh size for Vloc has been set to  751 to avoid numerical noise.
 Compensation charge density is not taken into account in XC energy/potential
 pspatm: atomic psp has been read  and splines computed
 
- pspini: atom type   3  psp file is ~/ABINIT_PAW_PBE/paw_pbe_standard/O.xml
- pspatm: opening atomic psp file    ~/ABINIT_PAW_PBE/paw_pbe_standard/O.xml
- pspatm : Reading pseudopotential header in XML form from ~/ABINIT_PAW_PBE/paw_pbe_standard/O.xml
 Pseudopotential format is: paw10
 basis_size (lnmax)=  4 (lmn_size=  8), orbitals=   0   0   1   1
 Spheres core radius: rc_sph= 1.41465230
 1 radial meshes are used:
  - mesh 1: r(i)=AA*[exp(BB*(i-1))-1], size=2001 , AA= 0.72565E-03 BB= 0.58052E-02
 Shapefunction is SIN type: shapef(r)=[sin(pi*r/rshp)/(pi*r/rshp)]**2
 Radius for shape functions =  1.20231231
 mmax= 2001
 Radial grid used for partial waves is grid 1
 Radial grid used for projectors is grid 1
 Radial grid used for (t)core density is grid 1
 Radial grid used for Vloc is grid 1
 Radial grid used for pseudo valence density is grid 1
 Mesh size for Vloc has been set to 1762 to avoid numerical noise.
 Compensation charge density is not taken into account in XC energy/potential
 pspatm: atomic psp has been read  and splines computed
 
   8.97881771E+04                                ecore*ucvol(ha*bohr**3)
--------------------------------------------------------------------------------
 
_setup2: Arith. and geom. avg. npw (full set) are    1209.250    1209.237
 
================================================================================

--- !BeginCycle
iteration_state: {dtset: 1, }
solver: {iscf: 7, nstep: 100, nline: 4, wfoptalg: 114, }
tolerances: {tolvrs: 1.00E-20, }
...
 
     iter   Etot(hartree)      deltaE(h)  residm     vres2
 ETOT  1  -689.17885840177    -6.892E+02 1.623E-02 2.221E+04
 ETOT  2  -685.82447193571     3.354E+00 3.812E-03 4.342E+04
 ETOT  3  -693.65612292152    -7.832E+00 4.444E-04 2.697E+03
 ETOT  4  -694.23946545930    -5.833E-01 1.304E-05 6.164E+02
 ETOT  5  -694.16177470641     7.769E-02 1.103E-04 7.027E+02
 ETOT  6  -694.29782896323    -1.361E-01 1.611E-05 2.056E+02
 ETOT  7  -694.33896838678    -4.114E-02 3.699E-06 3.834E+01
 ETOT  8  -694.34557395484    -6.606E-03 5.771E-07 7.980E+00
 ETOT  9  -694.34723871236    -1.665E-03 6.817E-07 3.991E-01
 ETOT 10  -694.34722308214     1.563E-05 8.829E-08 3.510E-01
 ETOT 11  -694.34727931517    -5.623E-05 4.440E-08 1.107E-01
 ETOT 12  -694.34730582543    -2.651E-05 1.515E-08 3.072E-03
 ETOT 13  -694.34730585809    -3.266E-08 1.303E-09 3.202E-03
 ETOT 14  -694.34730654642    -6.883E-07 6.078E-10 2.631E-04
 ETOT 15  -694.34730658881    -4.239E-08 7.296E-11 7.195E-05
 ETOT 16  -694.34730659588    -7.066E-09 6.656E-11 3.575E-05
 ETOT 17  -694.34730660488    -9.003E-09 1.239E-11 6.024E-06
 ETOT 18  -694.34730660575    -8.691E-10 1.072E-12 2.067E-06
 ETOT 19  -694.34730660624    -4.868E-10 6.069E-13 1.420E-07
 ETOT 20  -694.34730660626    -2.728E-11 1.185E-13 9.022E-08
 ETOT 21  -694.34730660629    -2.228E-11 6.196E-14 4.075E-09
 ETOT 22  -694.34730660629    -4.547E-13 3.770E-15 3.358E-09
 ETOT 23  -694.34730660629    -2.274E-13 8.099E-16 6.129E-10
 ETOT 24  -694.34730660629     4.547E-13 1.345E-16 2.118E-10
 ETOT 25  -694.34730660628     6.821E-13 3.477E-17 2.456E-11
 ETOT 26  -694.34730660629    -4.547E-13 1.321E-17 1.456E-11
 ETOT 27  -694.34730660629     3.411E-13 2.056E-17 6.384E-12
 ETOT 28  -694.34730660628     2.274E-13 3.378E-18 5.381E-13
 ETOT 29  -694.34730660629    -3.411E-13 5.024E-19 1.919E-13
 ETOT 30  -694.34730660629    -1.137E-13 5.103E-19 7.385E-14
 ETOT 31  -694.34730660628     4.547E-13 2.814E-19 4.300E-14
 ETOT 32  -694.34730660628     1.137E-13 1.582E-19 1.765E-14
 ETOT 33  -694.34730660628     1.137E-13 9.965E-20 6.379E-15
 ETOT 34  -694.34730660629    -4.547E-13 3.347E-21 8.139E-16
 ETOT 35  -694.34730660628     3.411E-13 1.184E-21 3.201E-16
 ETOT 36  -694.34730660628     2.274E-13 1.540E-22 1.049E-16
 ETOT 37  -694.34730660629    -7.958E-13 6.896E-23 3.022E-17
 ETOT 38  -694.34730660628     7.958E-13 1.099E-23 1.143E-17
 ETOT 39  -694.34730660628    -1.137E-13 3.470E-24 1.082E-18
 ETOT 40  -694.34730660628    -2.274E-13 3.970E-25 5.520E-19
 ETOT 41  -694.34730660628     1.137E-13 6.895E-26 1.740E-19
 ETOT 42  -694.34730660629    -5.684E-13 3.237E-26 8.202E-20
 ETOT 43  -694.34730660628     5.684E-13 9.133E-27 2.271E-20
 ETOT 44  -694.34730660628     2.274E-13 4.490E-27 9.541E-21
 
 At SCF step   44       vres2   =  9.54E-21 < tolvrs=  1.00E-20 =>converged.
 
 Cartesian components of stress tensor (hartree/bohr^3)
  sigma(1 1)=  8.99840710E-05  sigma(3 2)= -7.79268118E-05
  sigma(2 2)=  3.05698194E-05  sigma(3 1)=  0.00000000E+00
  sigma(3 3)=  8.07967097E-06  sigma(2 1)=  0.00000000E+00
 

--- !ResultsGS
iteration_state: {dtset: 1, }
comment   : Summary of ground state results
lattice_vectors:
- [ 13.5204236,   0.0000000,   0.0000000, ]
- [  0.0000000,  13.5204236,   0.0000000, ]
- [  0.0000000,   0.0000000,  13.5204236, ]
lattice_lengths: [  13.52042,   13.52042,   13.52042, ]
lattice_angles: [ 90.000,  90.000,  90.000, ] # degrees, (23, 13, 12)
lattice_volume:   2.4715585E+03
convergence: {deltae:  2.274E-13, res2:  9.541E-21, residm:  4.490E-27, diffor: null, }
etotal    :  -6.94347307E+02
entropy   :   0.00000000E+00
fermie    :   1.20649803E-01
cartesian_stress_tensor: # hartree/bohr^3
- [  8.99840710E-05,   0.00000000E+00,   0.00000000E+00, ]
- [  0.00000000E+00,   3.05698194E-05,  -7.79268118E-05, ]
- [  0.00000000E+00,  -7.79268118E-05,   8.07967097E-06, ]
pressure_GPa:  -1.2615E+00
xred      :
- [  8.6967E-01,   8.8786E-01,   8.2456E-01, La]
- [  3.6967E-01,   6.1214E-01,   1.7544E-01, La]
- [  1.3765E-01,   3.3677E-01,   6.2249E-01, La]
- [  6.3765E-01,   1.6323E-01,   3.7751E-01, La]
- [  1.6202E-01,   1.2119E-01,   1.8988E-01, Mo]
- [  6.6202E-01,   3.7881E-01,   8.1012E-01, Mo]
- [  8.2844E-01,   7.0122E-01,   2.8890E-01, Mo]
- [  3.2844E-01,   7.9878E-01,   7.1110E-01, Mo]
- [  3.2408E-01,   3.0394E-01,   3.1045E-01,  O]
- [  8.2408E-01,   1.9606E-01,   6.8955E-01,  O]
- [  6.7935E-01,   7.8029E-01,   1.0074E-01,  O]
- [  1.7935E-01,   7.1971E-01,   8.9926E-01,  O]
- [  9.8385E-01,   2.1473E-01,   3.5324E-01,  O]
- [  4.8385E-01,   2.8527E-01,   6.4676E-01,  O]
- [  4.4088E-02,   5.8374E-01,   2.6865E-01,  O]
- [  5.4409E-01,   9.1626E-01,   7.3135E-01,  O]
- [  3.5563E-01,   9.5614E-01,   2.3730E-01,  O]
- [  1.7421E-01,  -1.4353E-02,   6.4350E-01,  O]
- [  8.5563E-01,   5.4386E-01,   7.6270E-01,  O]
- [  6.7421E-01,   5.1435E-01,   3.5650E-01,  O]
- [  1.6150E-01,   2.2568E-01,   9.6561E-01,  O]
- [  8.1211E-01,   8.6267E-01,   4.7618E-01,  O]
- [  3.1211E-01,   6.3733E-01,   5.2382E-01,  O]
- [  6.6150E-01,   2.7432E-01,   3.4393E-02,  O]
- [ -7.5990E-03,  -7.1149E-02,   1.4368E-01,  O]
- [  4.9240E-01,   5.7115E-01,   8.5632E-01,  O]
cartesian_forces: # hartree/bohr
- [  5.51837181E-05,   1.49342091E-04,   3.61158106E-05, ]
- [  5.51837181E-05,  -1.49342091E-04,  -3.61158106E-05, ]
- [ -2.45112587E-04,  -2.05681302E-05,  -4.15948452E-04, ]
- [ -2.45112587E-04,   2.05681302E-05,   4.15948452E-04, ]
- [  1.82297004E-04,   2.12642072E-04,   1.34577438E-04, ]
- [  1.82297004E-04,  -2.12642072E-04,  -1.34577438E-04, ]
- [ -3.41255645E-05,  -1.41885216E-04,   1.56524302E-04, ]
- [ -3.41255645E-05,   1.41885216E-04,  -1.56524302E-04, ]
- [ -3.02071885E-05,   1.17657684E-04,  -5.37456837E-05, ]
- [ -3.02071885E-05,  -1.17657684E-04,   5.37456837E-05, ]
- [  9.59826017E-05,   5.46266278E-05,  -1.06361864E-04, ]
- [  9.59826017E-05,  -5.46266278E-05,   1.06361864E-04, ]
- [  6.08012513E-05,  -1.49652287E-04,  -4.68556561E-05, ]
- [  6.08012513E-05,   1.49652287E-04,   4.68556561E-05, ]
- [ -5.50466550E-05,   4.47583739E-05,  -2.91709013E-05, ]
- [ -5.50466550E-05,  -4.47583739E-05,   2.91709013E-05, ]
- [ -1.78571188E-04,  -1.04708433E-04,  -1.64576486E-04, ]
- [  2.31767893E-05,   2.26537929E-05,   1.26078828E-05, ]
- [ -1.78571188E-04,   1.04708433E-04,   1.64576486E-04, ]
- [  2.31767893E-05,  -2.26537929E-05,  -1.26078828E-05, ]
- [ -5.90949962E-05,  -7.49089843E-05,   9.74583600E-05, ]
- [  1.25597707E-05,   3.75023962E-05,  -7.33781514E-05, ]
- [  1.25597707E-05,  -3.75023962E-05,   7.33781514E-05, ]
- [ -5.90949962E-05,   7.49089843E-05,  -9.74583600E-05, ]
- [  1.72157044E-04,   2.13645257E-05,   1.97145001E-06, ]
- [  1.72157044E-04,  -2.13645257E-05,  -1.97145001E-06, ]
force_length_stats: {min:   3.47752297E-05, max:   4.83235287E-04, mean:   1.84212231E-04, }
...

 Integrated electronic density in atomic spheres:
 ------------------------------------------------
 Atom  Sphere_radius  Integrated_density
    1        2.51647          7.87244975
    2        2.51647          7.86523327
    3        2.51647          7.84272103
    4        2.51647          7.84282883
    5        2.20000         11.35330758
    6        2.20000         11.35725957
    7        2.20000         11.50719834
    8        2.20000         11.49686496
    9        1.41465          4.55224323
   10        1.41465          4.55150180
   11        1.41465          4.57365047
   12        1.41465          4.55907758
   13        1.41465          4.56815796
   14        1.41465          4.55731556
   15        1.41465          4.55737318
   16        1.41465          4.56045919
   17        1.41465          4.52933837
   18        1.41465          4.53967950
   19        1.41465          4.52441102
   20        1.41465          4.53888796
   21        1.41465          4.53725740
   22        1.41465          4.55849109
   23        1.41465          4.55468242
   24        1.41465          4.52541330
   25        1.41465          4.55857430
   26        1.41465          4.55698959
 
 PAW TEST:
 ==== Compensation charge inside spheres ============
 The following values must be close to each other ...
 Compensation charge over spherical meshes =     21.034359503091260
 Compensation charge over fft grid         =     21.034457615309705
 
 ==== Results concerning PAW augmentation regions ====
 
 Total pseudopotential strength Dij (hartree):
 Atom #  1
   0.47562  -0.11775   0.00015   0.00015   0.00041   0.00002   0.00002   0.00004  -0.00001   0.00006  -0.00002  -0.00001 ...
  -0.11775   0.02321  -0.00003  -0.00003  -0.00008   0.00001   0.00001   0.00002   0.00000   0.00000   0.00000  -0.00001 ...
   0.00015  -0.00003  -0.18010   0.00002  -0.00003   0.04322   0.00024   0.00004   0.00012   0.00004  -0.00003   0.00002 ...
   0.00015  -0.00003   0.00002  -0.18011   0.00002   0.00024   0.04313  -0.00015   0.00002   0.00003   0.00006   0.00011 ...
   0.00041  -0.00008  -0.00003   0.00002  -0.18007   0.00004  -0.00015   0.04326   0.00003   0.00002  -0.00006   0.00003 ...
   0.00002   0.00001   0.04322   0.00024   0.00004   0.32000   0.00006   0.00001   0.00005   0.00006  -0.00003   0.00001 ...
   0.00002   0.00001   0.00024   0.04313  -0.00015   0.00006   0.31998  -0.00004   0.00001   0.00000   0.00001   0.00005 ...
   0.00004   0.00002   0.00004  -0.00015   0.04326   0.00001  -0.00004   0.32001   0.00003   0.00001  -0.00003   0.00001 ...
  -0.00001   0.00000   0.00012   0.00002   0.00003   0.00005   0.00001   0.00003  -0.05751  -0.00002   0.00000   0.00003 ...
   0.00006   0.00000   0.00004   0.00003   0.00002   0.00006   0.00000   0.00001  -0.00002  -0.05753   0.00002  -0.00000 ...
  -0.00002   0.00000  -0.00003   0.00006  -0.00006  -0.00003   0.00001  -0.00003   0.00000   0.00002  -0.05753  -0.00001 ...
  -0.00001  -0.00001   0.00002   0.00011   0.00003   0.00001   0.00005   0.00001   0.00003  -0.00000  -0.00001  -0.05752 ...
   ...  only 12  components have been written...
 Atom # 26
   0.61735  -1.77084   0.00048   0.00013  -0.00035  -0.00342  -0.00099   0.00252
  -1.77084   5.13805  -0.00122  -0.00035   0.00090   0.00903   0.00268  -0.00664
   0.00048  -0.00122  -0.31142  -0.00007   0.00071   0.97497   0.00038  -0.00363
   0.00013  -0.00035  -0.00007  -0.31091   0.00017   0.00038   0.97231  -0.00092
  -0.00035   0.00090   0.00071   0.00017  -0.31117  -0.00363  -0.00092   0.97363
  -0.00342   0.00903   0.97497   0.00038  -0.00363  -0.30923  -0.00184   0.01801
  -0.00099   0.00268   0.00038   0.97231  -0.00092  -0.00184  -0.29593   0.00465
   0.00252  -0.00664  -0.00363  -0.00092   0.97363   0.01801   0.00465  -0.30234
 
 
 Augmentation waves occupancies Rhoij:
 Atom #  1
   2.02490  -0.08010  -0.00273  -0.00292  -0.00505   0.00107   0.00146   0.00244   0.00258   0.01458  -0.00408  -0.01046 ...
  -0.08010   0.25108   0.00946   0.01153   0.02044  -0.00200  -0.00248  -0.00537  -0.00380  -0.02266   0.00533   0.01800 ...
  -0.00273   0.00946   2.04349  -0.01255  -0.00242  -0.02072   0.00702   0.00141   0.00836   0.04270  -0.00965  -0.00633 ...
  -0.00292   0.01153  -0.01255   2.05469   0.00682   0.00701  -0.02608  -0.00437  -0.00420  -0.00540  -0.02255   0.00567 ...
  -0.00505   0.02044  -0.00242   0.00682   2.04708   0.00141  -0.00437  -0.02199   0.01080  -0.00919  -0.01356   0.00682 ...
   0.00107  -0.00200  -0.02072   0.00701   0.00141   0.01477  -0.00258  -0.00062  -0.00151  -0.01292   0.00241   0.00231 ...
   0.00146  -0.00248   0.00702  -0.02608  -0.00437  -0.00258   0.01663   0.00168   0.00158   0.00207   0.00862  -0.00010 ...
   0.00244  -0.00537   0.00141  -0.00437  -0.02199  -0.00062   0.00168   0.01517  -0.00286   0.00337   0.00400  -0.00188 ...
   0.00258  -0.00380   0.00836  -0.00420   0.01080  -0.00151   0.00158  -0.00286   0.07379   0.01005   0.01681  -0.02371 ...
   0.01458  -0.02266   0.04270  -0.00540  -0.00919  -0.01292   0.00207   0.00337   0.01005   0.08589   0.01120   0.01330 ...
  -0.00408   0.00533  -0.00965  -0.02255  -0.01356   0.00241   0.00862   0.00400   0.01681   0.01120   0.12112   0.00563 ...
  -0.01046   0.01800  -0.00633   0.00567   0.00682   0.00231  -0.00010  -0.00188  -0.02371   0.01330   0.00563   0.10332 ...
   ...  only 12  components have been written...
 Atom # 26
   1.99693   0.03076  -0.01089   0.00509   0.00896  -0.00297  -0.00035   0.00224
   0.03076   0.00123  -0.00671  -0.00190   0.00491  -0.00029  -0.00006   0.00022
  -0.01089  -0.00671   1.75322   0.00012  -0.04638   0.03329  -0.00046  -0.00667
   0.00509  -0.00190   0.00012   1.73417   0.00047  -0.00045   0.02955  -0.00113
   0.00896   0.00491  -0.04638   0.00047   1.75974  -0.00665  -0.00112   0.03110
  -0.00297  -0.00029   0.03329  -0.00045  -0.00665   0.00089   0.00002  -0.00033
  -0.00035  -0.00006  -0.00046   0.02955  -0.00112   0.00002   0.00066  -0.00006
   0.00224   0.00022  -0.00667  -0.00113   0.03110  -0.00033  -0.00006   0.00079
 
 
================================================================================
 
 ----iterations are completed or convergence reached----
 
 Mean square residual over all n,k,spin=   49.755E-29; max=  44.896E-28
 reduced coordinates (array xred) for   26 atoms
       0.869669289690      0.887862162180      0.824558806910
       0.369669289690      0.612137837820      0.175441193090
       0.137652791930      0.336771618050      0.622486368410
       0.637652791930      0.163228381950      0.377513631590
       0.162016923610      0.121194862290      0.189878692090
       0.662016923610      0.378805137710      0.810121307910
       0.828438006040      0.701219671950      0.288898796280
       0.328438006040      0.798780328050      0.711101203720
       0.324076805380      0.303938936660      0.310448839960
       0.824076805380      0.196061063340      0.689551160040
       0.679353520800      0.780287961790      0.100744284650
       0.179353520800      0.719712038210      0.899255715350
       0.983850210640      0.214732471370      0.353240179920
       0.483850210640      0.285267528630      0.646759820080
       0.044087666290      0.583738832650      0.268646887930
       0.544087666290      0.916261167350      0.731353112070
       0.355631968970      0.956140432110      0.237303556180
       0.174214645540     -0.014353119580      0.643502161350
       0.855631968970      0.543859567890      0.762696443820
       0.674214645540      0.514353119580      0.356497838650
       0.161501640370      0.225678670160      0.965607473082
       0.812105489920      0.862667938090      0.476176209840
       0.312105489920      0.637332061910      0.523823790160
       0.661501640370      0.274321329840      0.034392526918
      -0.007598959179     -0.071148839529      0.143677332080
       0.492401040821      0.571148839529      0.856322667920
 rms dE/dt=  1.7036E-03; max dE/dt=  5.6238E-03; dE/dt below (all hartree)
    1      -0.001198026040     -0.002019168326     -0.000488301057
    2      -0.001198026040      0.002019168326      0.000488301057
    3       0.002862107193      0.000278089832      0.005623799245
    4       0.002862107193     -0.000278089832     -0.005623799245
    5      -0.002916651501     -0.002875010881     -0.001819543967
    6      -0.002916651501      0.002875010881      0.001819543967
    7       0.000009473288      0.001918348215     -0.002116274859
    8       0.000009473288     -0.001918348215      0.002116274859
    9      -0.000043504815     -0.001590781719      0.000726664409
   10      -0.000043504815      0.001590781719     -0.000726664409
   11      -0.001749644227     -0.000738575146      0.001438057446
   12      -0.001749644227      0.000738575146     -0.001438057446
   13      -0.001273977469      0.002023362313      0.000633508317
   14      -0.001273977469     -0.002023362313     -0.000633508317
   15       0.000292335294     -0.000605152173      0.000394402942
   16       0.000292335294      0.000605152173     -0.000394402942
   17       0.001962439305      0.001415702364      0.002225143803
   18      -0.000765278805     -0.000306288876     -0.000170463916
   19       0.001962439305     -0.001415702364     -0.002225143803
   20      -0.000765278805      0.000306288876      0.000170463916
   21       0.000347070581      0.001012801196     -0.001317678308
   22      -0.000621732217     -0.000507048282      0.000992103688
   23      -0.000621732217      0.000507048282     -0.000992103688
   24       0.000347070581     -0.001012801196      0.001317678308
   25      -0.002779554958     -0.000288857436     -0.000026654839
   26      -0.002779554958      0.000288857436      0.000026654839
 
 cartesian coordinates (angstrom) at end:
    1      6.22222286694504     6.35238741174925     5.89947089579898
    2      2.64487286694504     4.37966258825075     1.25522910420102
    3      0.98486443042157     2.40949989566233     4.45370322006303
    4      4.56221443042157     1.16785010433766     2.70099677993697
    5      1.15918248335247     0.86711288122626     1.35852507829632
    6      4.73653248335247     2.71023711877374     5.79617492170368
    7      5.92722540181439     5.01701638690067     2.06698421774452
    8      2.34987540181439     5.71503361309933     5.08771578225548
    9      2.31867231945229     2.17459191012130     2.22116831526181
   10      5.89602231945229     1.40275808987870     4.93353168473819
   11      4.86057063526776     5.58272628021891     0.72079513338535
   12      1.28322063526776     5.14932371978109     6.43390486661464
   13      7.03915310206601     1.53634641291094     2.52732751527362
   14      3.46180310206601     2.04100358708906     4.62737248472638
   15      0.31543402600149     4.17647622596095     1.92208788907277
   16      3.89278402600149     6.55557377403904     5.23261211092723
   17      2.54444004838966     6.84089794961742     1.69783575340105
   18      1.24645352444504    -0.10269226465903     4.60406491381084
   19      6.12179004838966     3.89115205038258     5.45686424659895
   20      4.82380352444504     3.68004226465903     2.55063508618915
   21      1.15549578635524     1.61466318139375     6.90863178765621
   22      5.81037114873062     6.17213029665252     3.40689792854225
   23      2.23302114873062     4.55991970334748     3.74780207145775
   24      4.73284578635524     1.96268681860625     0.24606821234379
   25     -0.05436827323692    -0.50904860218171     1.02796820783278
   26      3.52298172676308     4.08639860218171     6.12673179216722
 
 cartesian forces (hartree/bohr) at end:
    1      0.00005518371811     0.00014934209102     0.00003611581061
    2      0.00005518371811    -0.00014934209102    -0.00003611581061
    3     -0.00024511258659    -0.00002056813018    -0.00041594845155
    4     -0.00024511258659     0.00002056813018     0.00041594845155
    5      0.00018229700361     0.00021264207204     0.00013457743820
    6      0.00018229700361    -0.00021264207204    -0.00013457743820
    7     -0.00003412556446    -0.00014188521583     0.00015652430183
    8     -0.00003412556446     0.00014188521583    -0.00015652430183
    9     -0.00003020718846     0.00011765768366    -0.00005374568372
   10     -0.00003020718846    -0.00011765768366     0.00005374568372
   11      0.00009598260168     0.00005462662782    -0.00010636186355
   12      0.00009598260168    -0.00005462662782     0.00010636186355
   13      0.00006080125135    -0.00014965228742    -0.00004685565614
   14      0.00006080125135     0.00014965228742     0.00004685565614
   15     -0.00005504665504     0.00004475837392    -0.00002917090132
   16     -0.00005504665504    -0.00004475837392     0.00002917090132
   17     -0.00017857118838    -0.00010470843295    -0.00016457648628
   18      0.00002317678926     0.00002265379293     0.00001260788280
   19     -0.00017857118838     0.00010470843295     0.00016457648628
   20      0.00002317678926    -0.00002265379293    -0.00001260788280
   21     -0.00005909499619    -0.00007490898427     0.00009745836005
   22      0.00001255977066     0.00003750239624    -0.00007337815144
   23      0.00001255977066    -0.00003750239624     0.00007337815144
   24     -0.00005909499619     0.00007490898427    -0.00009745836005
   25      0.00017215704445     0.00002136452567     0.00000197145001
   26      0.00017215704445    -0.00002136452567    -0.00000197145001
 frms,max,avg= 1.2451403E-04 4.1594845E-04   3.342E-05  0.000E+00  0.000E+00 h/b
 
 cartesian forces (eV/Angstrom) at end:
    1      0.00283766063974     0.00767947844185     0.00185714949550
    2      0.00283766063974    -0.00767947844185    -0.00185714949550
    3     -0.01260419491665    -0.00105765568976    -0.02138892756038
    4     -0.01260419491665     0.00105765568976     0.02138892756038
    5      0.00937408803938     0.01093449406551     0.00692024953160
    6      0.00937408803938    -0.01093449406551    -0.00692024953160
    7     -0.00175480693211    -0.00729603053454     0.00804880254001
    8     -0.00175480693211     0.00729603053454    -0.00804880254001
    9     -0.00155331595389     0.00605020084440    -0.00276371394465
   10     -0.00155331595389    -0.00605020084440     0.00276371394465
   11      0.00493562340877     0.00280901390750    -0.00546934646849
   12      0.00493562340877    -0.00280901390750     0.00546934646849
   13      0.00312652578893    -0.00769542938072    -0.00240941451108
   14      0.00312652578893     0.00769542938072     0.00240941451108
   15     -0.00283061257396     0.00230156793201    -0.00150002793097
   16     -0.00283061257396    -0.00230156793201     0.00150002793097
   17     -0.00918249893327    -0.00538432365606    -0.00846286247743
   18      0.00119179832188     0.00116490477175     0.00064832334630
   19     -0.00918249893327     0.00538432365606     0.00846286247743
   20      0.00119179832188    -0.00116490477175    -0.00064832334630
   21     -0.00303878662836    -0.00385197452257     0.00501150994896
   22      0.00064584932074     0.00192845058910    -0.00377325594038
   23      0.00064584932074    -0.00192845058910     0.00377325594038
   24     -0.00303878662836     0.00385197452257    -0.00501150994896
   25      0.00885267041877     0.00109860798895     0.00010137602685
   26      0.00885267041877    -0.00109860798895    -0.00010137602685
 frms,max,avg= 6.4027686E-03 2.1388928E-02   1.719E-03  0.000E+00  0.000E+00 e/A
 length scales= 13.520423562957 13.520423562957 13.520423562957 bohr
              =  7.154700000000  7.154700000000  7.154700000000 angstroms
 Fermi (or HOMO) energy (hartree) =   0.12065   Average Vxc (hartree)=  -0.38637
 Eigenvalues (hartree) for nkpt=   8  k points:
 kpt#   1, nband=104, wtk=  0.12500, kpt=  0.0000  0.0000  0.0000 (reduced coord)
  -2.13201   -2.13200   -2.13033   -2.13033   -1.19138   -1.19134   -1.18967   -1.18965
  -1.18706   -1.18705   -1.18453   -1.18453   -1.18224   -1.18222   -1.18162   -1.18162
  -0.98778   -0.98616   -0.98303   -0.98286   -0.52021   -0.51682   -0.51274   -0.51178
  -0.50924   -0.50717   -0.49761   -0.49656   -0.49425   -0.49011   -0.48886   -0.48767
  -0.48499   -0.48275   -0.47745   -0.47464   -0.47321   -0.46702   -0.38479   -0.38268
  -0.38131   -0.37842   -0.37626   -0.37495   -0.36786   -0.36282   -0.36059   -0.35869
  -0.35068   -0.34895   -0.06360   -0.06303   -0.05959   -0.05715   -0.04830   -0.04637
  -0.04348   -0.03934   -0.03724   -0.03196   -0.03078   -0.02843   -0.02729   -0.02258
  -0.02248   -0.01989   -0.01784   -0.01457   -0.01240   -0.00888   -0.00252    0.00415
   0.00638    0.01595    0.02036    0.02666    0.02938    0.03114    0.03438    0.04034
   0.04404    0.04783    0.05456    0.05514    0.06060    0.06101    0.06397    0.06712
   0.07421    0.07458    0.07691    0.07832    0.08258    0.08342    0.08561    0.09040
   0.09237    0.09296    0.09821    0.09925    0.10678    0.10679    0.11135    0.12065
 prteigrs : prtvol=0 or 1, do not print more k-points.
 

--- !EnergyTerms
iteration_state     : {dtset: 1, }
comment             : Components of total free energy in Hartree
kinetic             :  2.13974700007435E+02
hartree             :  1.85537132345827E+02
xc                  : -9.11955997728443E+01
Ewald energy        : -5.04542095746092E+02
psp_core            :  3.63285666352927E+01
local_psp           : -5.78961446368840E+02
spherical_terms     :  4.45114362929361E+01
total_energy        : -6.94347306606285E+02
total_energy_eV     : -1.88941510922207E+04
...


--- !EnergyTermsDC
iteration_state     : {dtset: 1, }
comment             : '"Double-counting" decomposition of free energy'
band_energy         : -7.71848784092163E+01
Ewald energy        : -5.04542095746092E+02
psp_core            :  3.63285666352927E+01
xc_dc               : -1.57678407499385E+02
spherical_terms     :  8.72950841033420E+00
total_energy_dc     : -6.94347306609066E+02
total_energy_dc_eV  : -1.88941510922964E+04
...

 
 Cartesian components of stress tensor (hartree/bohr^3)
  sigma(1 1)=  8.99840710E-05  sigma(3 2)= -7.79268118E-05
  sigma(2 2)=  3.05698194E-05  sigma(3 1)=  0.00000000E+00
  sigma(3 3)=  8.07967097E-06  sigma(2 1)=  0.00000000E+00
 
-Cartesian components of stress tensor (GPa)         [Pressure= -1.2615E+00 GPa]
- sigma(1 1)=  2.64742233E+00  sigma(3 2)= -2.29268557E+00
- sigma(2 2)=  8.99394987E-01  sigma(3 1)=  0.00000000E+00
- sigma(3 3)=  2.37712087E-01  sigma(2 1)=  0.00000000E+00
 
================================================================================
== DATASET  2 ==================================================================
-   mpi_nproc: 60, omp_nthreads: 1 (-1 if OMP is not activated)
 

--- !DatasetInfo
iteration_state: {dtset: 2, }
dimensions: {natom: 26, nkpt: 8, mband: 104, nsppol: 1, nspinor: 1, nspden: 1, mpw: 1214, }
cutoff_energies: {ecut:  30.0, pawecutdg:  30.0, }
electrons: {nelect:   2.08000000E+02, charge:   0.00000000E+00, occopt:   1.00000000E+00, tsmear:   1.00000000E-02, }
meta: {optdriver: 0, ionmov: 0, optcell: 0, iscf: 7, paral_kgb: 1, }
...

 mkfilename : getwfk/=0, take file _WFK from output of DATASET   1.
 
 Real(R)+Recip(G) space primitive vectors, cartesian coordinates (Bohr,Bohr^-1):
 R(1)= 13.5204236  0.0000000  0.0000000  G(1)=  0.0739622  0.0000000  0.0000000
 R(2)=  0.0000000 13.5204236  0.0000000  G(2)=  0.0000000  0.0739622  0.0000000
 R(3)=  0.0000000  0.0000000 13.5204236  G(3)=  0.0000000  0.0000000  0.0739622
 Unit cell volume ucvol=  2.4715585E+03 bohr^3
 Angles (23,13,12)=  9.00000000E+01  9.00000000E+01  9.00000000E+01 degrees
 
 Coarse grid specifications (used for wave-functions):
 
 getcut: wavevector=  0.0000  0.0000  0.0000  ngfft=  72  75  75
         ecut(hartree)=     30.000   => boxcut(ratio)=   2.15981
 
 Fine grid specifications (used for densities):
 
 getcut: wavevector=  0.0000  0.0000  0.0000  ngfft=  72  75  75
         ecut(hartree)=     30.000   => boxcut(ratio)=   2.15981
--------------------------------------------------------------------------------
 
-inwffil : will read wavefunctions from disk file abi-o_DS1_WFK
_setup2: Arith. and geom. avg. npw (full set) are    1209.250    1209.237
 
================================================================================

--- !BeginCycle
iteration_state: {dtset: 2, }
solver: {iscf: 7, nstep: 250, nline: 4, wfoptalg: 114, }
tolerances: {tolwfr: 1.00E-20, }
...
 
     iter   Etot(hartree)      deltaE(h)  residm     vres2
 ETOT  1  -694.34730660628    -6.943E+02 2.098E-26 1.553E-20
 
 At SCF step    1   max residual=  2.10E-26 < tolwfr=  1.00E-20 =>converged.
 
 Cartesian components of stress tensor (hartree/bohr^3)
  sigma(1 1)=  8.99840710E-05  sigma(3 2)= -7.79268118E-05
  sigma(2 2)=  3.05698194E-05  sigma(3 1)=  0.00000000E+00
  sigma(3 3)=  8.07967097E-06  sigma(2 1)=  0.00000000E+00
 

--- !ResultsGS
iteration_state: {dtset: 2, }
comment   : Summary of ground state results
lattice_vectors:
- [ 13.5204236,   0.0000000,   0.0000000, ]
- [  0.0000000,  13.5204236,   0.0000000, ]
- [  0.0000000,   0.0000000,  13.5204236, ]
lattice_lengths: [  13.52042,   13.52042,   13.52042, ]
lattice_angles: [ 90.000,  90.000,  90.000, ] # degrees, (23, 13, 12)
lattice_volume:   2.4715585E+03
convergence: {deltae: -6.943E+02, res2:  1.553E-20, residm:  2.098E-26, diffor: null, }
etotal    :  -6.94347307E+02
entropy   :   0.00000000E+00
fermie    :   1.20649803E-01
cartesian_stress_tensor: # hartree/bohr^3
- [  8.99840710E-05,   0.00000000E+00,   0.00000000E+00, ]
- [  0.00000000E+00,   3.05698194E-05,  -7.79268118E-05, ]
- [  0.00000000E+00,  -7.79268118E-05,   8.07967097E-06, ]
pressure_GPa:  -1.2615E+00
xred      :
- [  8.6967E-01,   8.8786E-01,   8.2456E-01, La]
- [  3.6967E-01,   6.1214E-01,   1.7544E-01, La]
- [  1.3765E-01,   3.3677E-01,   6.2249E-01, La]
- [  6.3765E-01,   1.6323E-01,   3.7751E-01, La]
- [  1.6202E-01,   1.2119E-01,   1.8988E-01, Mo]
- [  6.6202E-01,   3.7881E-01,   8.1012E-01, Mo]
- [  8.2844E-01,   7.0122E-01,   2.8890E-01, Mo]
- [  3.2844E-01,   7.9878E-01,   7.1110E-01, Mo]
- [  3.2408E-01,   3.0394E-01,   3.1045E-01,  O]
- [  8.2408E-01,   1.9606E-01,   6.8955E-01,  O]
- [  6.7935E-01,   7.8029E-01,   1.0074E-01,  O]
- [  1.7935E-01,   7.1971E-01,   8.9926E-01,  O]
- [  9.8385E-01,   2.1473E-01,   3.5324E-01,  O]
- [  4.8385E-01,   2.8527E-01,   6.4676E-01,  O]
- [  4.4088E-02,   5.8374E-01,   2.6865E-01,  O]
- [  5.4409E-01,   9.1626E-01,   7.3135E-01,  O]
- [  3.5563E-01,   9.5614E-01,   2.3730E-01,  O]
- [  1.7421E-01,  -1.4353E-02,   6.4350E-01,  O]
- [  8.5563E-01,   5.4386E-01,   7.6270E-01,  O]
- [  6.7421E-01,   5.1435E-01,   3.5650E-01,  O]
- [  1.6150E-01,   2.2568E-01,   9.6561E-01,  O]
- [  8.1211E-01,   8.6267E-01,   4.7618E-01,  O]
- [  3.1211E-01,   6.3733E-01,   5.2382E-01,  O]
- [  6.6150E-01,   2.7432E-01,   3.4393E-02,  O]
- [ -7.5990E-03,  -7.1149E-02,   1.4368E-01,  O]
- [  4.9240E-01,   5.7115E-01,   8.5632E-01,  O]
cartesian_forces: # hartree/bohr
- [  5.51837181E-05,   1.49342091E-04,   3.61158104E-05, ]
- [  5.51837181E-05,  -1.49342091E-04,  -3.61158104E-05, ]
- [ -2.45112587E-04,  -2.05681303E-05,  -4.15948452E-04, ]
- [ -2.45112587E-04,   2.05681303E-05,   4.15948452E-04, ]
- [  1.82297003E-04,   2.12642072E-04,   1.34577437E-04, ]
- [  1.82297003E-04,  -2.12642072E-04,  -1.34577437E-04, ]
- [ -3.41255639E-05,  -1.41885216E-04,   1.56524302E-04, ]
- [ -3.41255639E-05,   1.41885216E-04,  -1.56524302E-04, ]
- [ -3.02071885E-05,   1.17657684E-04,  -5.37456837E-05, ]
- [ -3.02071885E-05,  -1.17657684E-04,   5.37456837E-05, ]
- [  9.59826017E-05,   5.46266278E-05,  -1.06361864E-04, ]
- [  9.59826017E-05,  -5.46266278E-05,   1.06361864E-04, ]
- [  6.08012514E-05,  -1.49652287E-04,  -4.68556562E-05, ]
- [  6.08012514E-05,   1.49652287E-04,   4.68556562E-05, ]
- [ -5.50466551E-05,   4.47583739E-05,  -2.91709013E-05, ]
- [ -5.50466551E-05,  -4.47583739E-05,   2.91709013E-05, ]
- [ -1.78571188E-04,  -1.04708433E-04,  -1.64576486E-04, ]
- [  2.31767893E-05,   2.26537929E-05,   1.26078828E-05, ]
- [ -1.78571188E-04,   1.04708433E-04,   1.64576486E-04, ]
- [  2.31767893E-05,  -2.26537929E-05,  -1.26078828E-05, ]
- [ -5.90949962E-05,  -7.49089843E-05,   9.74583601E-05, ]
- [  1.25597706E-05,   3.75023962E-05,  -7.33781515E-05, ]
- [  1.25597706E-05,  -3.75023962E-05,   7.33781515E-05, ]
- [ -5.90949962E-05,   7.49089843E-05,  -9.74583601E-05, ]
- [  1.72157044E-04,   2.13645257E-05,   1.97145001E-06, ]
- [  1.72157044E-04,  -2.13645257E-05,  -1.97145001E-06, ]
force_length_stats: {min:   3.47752297E-05, max:   4.83235287E-04, mean:   1.84212231E-04, }
...

 Integrated electronic density in atomic spheres:
 ------------------------------------------------
 Atom  Sphere_radius  Integrated_density
    1        2.51647          7.87244975
    2        2.51647          7.86523327
    3        2.51647          7.84272103
    4        2.51647          7.84282883
    5        2.20000         11.35330758
    6        2.20000         11.35725957
    7        2.20000         11.50719834
    8        2.20000         11.49686496
    9        1.41465          4.55224323
   10        1.41465          4.55150180
   11        1.41465          4.57365047
   12        1.41465          4.55907758
   13        1.41465          4.56815796
   14        1.41465          4.55731556
   15        1.41465          4.55737318
   16        1.41465          4.56045919
   17        1.41465          4.52933837
   18        1.41465          4.53967950
   19        1.41465          4.52441102
   20        1.41465          4.53888796
   21        1.41465          4.53725740
   22        1.41465          4.55849109
   23        1.41465          4.55468242
   24        1.41465          4.52541330
   25        1.41465          4.55857430
   26        1.41465          4.55698959
 
 PAW TEST:
 ==== Compensation charge inside spheres ============
 The following values must be close to each other ...
 Compensation charge over spherical meshes =     21.034359503090720
 Compensation charge over fft grid         =     21.034457615309165
 
 ==== Results concerning PAW augmentation regions ====
 
 Total pseudopotential strength Dij (hartree):
 Atom #  1
   0.47562  -0.11775   0.00015   0.00015   0.00041   0.00002   0.00002   0.00004  -0.00001   0.00006  -0.00002  -0.00001 ...
  -0.11775   0.02321  -0.00003  -0.00003  -0.00008   0.00001   0.00001   0.00002   0.00000   0.00000   0.00000  -0.00001 ...
   0.00015  -0.00003  -0.18010   0.00002  -0.00003   0.04322   0.00024   0.00004   0.00012   0.00004  -0.00003   0.00002 ...
   0.00015  -0.00003   0.00002  -0.18011   0.00002   0.00024   0.04313  -0.00015   0.00002   0.00003   0.00006   0.00011 ...
   0.00041  -0.00008  -0.00003   0.00002  -0.18007   0.00004  -0.00015   0.04326   0.00003   0.00002  -0.00006   0.00003 ...
   0.00002   0.00001   0.04322   0.00024   0.00004   0.32000   0.00006   0.00001   0.00005   0.00006  -0.00003   0.00001 ...
   0.00002   0.00001   0.00024   0.04313  -0.00015   0.00006   0.31998  -0.00004   0.00001   0.00000   0.00001   0.00005 ...
   0.00004   0.00002   0.00004  -0.00015   0.04326   0.00001  -0.00004   0.32001   0.00003   0.00001  -0.00003   0.00001 ...
  -0.00001   0.00000   0.00012   0.00002   0.00003   0.00005   0.00001   0.00003  -0.05751  -0.00002   0.00000   0.00003 ...
   0.00006   0.00000   0.00004   0.00003   0.00002   0.00006   0.00000   0.00001  -0.00002  -0.05753   0.00002  -0.00000 ...
  -0.00002   0.00000  -0.00003   0.00006  -0.00006  -0.00003   0.00001  -0.00003   0.00000   0.00002  -0.05753  -0.00001 ...
  -0.00001  -0.00001   0.00002   0.00011   0.00003   0.00001   0.00005   0.00001   0.00003  -0.00000  -0.00001  -0.05752 ...
   ...  only 12  components have been written...
 Atom # 26
   0.61735  -1.77084   0.00048   0.00013  -0.00035  -0.00342  -0.00099   0.00252
  -1.77084   5.13805  -0.00122  -0.00035   0.00090   0.00903   0.00268  -0.00664
   0.00048  -0.00122  -0.31142  -0.00007   0.00071   0.97497   0.00038  -0.00363
   0.00013  -0.00035  -0.00007  -0.31091   0.00017   0.00038   0.97231  -0.00092
  -0.00035   0.00090   0.00071   0.00017  -0.31117  -0.00363  -0.00092   0.97363
  -0.00342   0.00903   0.97497   0.00038  -0.00363  -0.30923  -0.00184   0.01801
  -0.00099   0.00268   0.00038   0.97231  -0.00092  -0.00184  -0.29593   0.00465
   0.00252  -0.00664  -0.00363  -0.00092   0.97363   0.01801   0.00465  -0.30234
 
 
 Augmentation waves occupancies Rhoij:
 Atom #  1
   2.02490  -0.08010  -0.00273  -0.00292  -0.00505   0.00107   0.00146   0.00244   0.00258   0.01458  -0.00408  -0.01046 ...
  -0.08010   0.25108   0.00946   0.01153   0.02044  -0.00200  -0.00248  -0.00537  -0.00380  -0.02266   0.00533   0.01800 ...
  -0.00273   0.00946   2.04349  -0.01255  -0.00242  -0.02072   0.00702   0.00141   0.00836   0.04270  -0.00965  -0.00633 ...
  -0.00292   0.01153  -0.01255   2.05469   0.00682   0.00701  -0.02608  -0.00437  -0.00420  -0.00540  -0.02255   0.00567 ...
  -0.00505   0.02044  -0.00242   0.00682   2.04708   0.00141  -0.00437  -0.02199   0.01080  -0.00919  -0.01356   0.00682 ...
   0.00107  -0.00200  -0.02072   0.00701   0.00141   0.01477  -0.00258  -0.00062  -0.00151  -0.01292   0.00241   0.00231 ...
   0.00146  -0.00248   0.00702  -0.02608  -0.00437  -0.00258   0.01663   0.00168   0.00158   0.00207   0.00862  -0.00010 ...
   0.00244  -0.00537   0.00141  -0.00437  -0.02199  -0.00062   0.00168   0.01517  -0.00286   0.00337   0.00400  -0.00188 ...
   0.00258  -0.00380   0.00836  -0.00420   0.01080  -0.00151   0.00158  -0.00286   0.07379   0.01005   0.01681  -0.02371 ...
   0.01458  -0.02266   0.04270  -0.00540  -0.00919  -0.01292   0.00207   0.00337   0.01005   0.08589   0.01120   0.01330 ...
  -0.00408   0.00533  -0.00965  -0.02255  -0.01356   0.00241   0.00862   0.00400   0.01681   0.01120   0.12112   0.00563 ...
  -0.01046   0.01800  -0.00633   0.00567   0.00682   0.00231  -0.00010  -0.00188  -0.02371   0.01330   0.00563   0.10332 ...
   ...  only 12  components have been written...
 Atom # 26
   1.99693   0.03076  -0.01089   0.00509   0.00896  -0.00297  -0.00035   0.00224
   0.03076   0.00123  -0.00671  -0.00190   0.00491  -0.00029  -0.00006   0.00022
  -0.01089  -0.00671   1.75322   0.00012  -0.04638   0.03329  -0.00046  -0.00667
   0.00509  -0.00190   0.00012   1.73417   0.00047  -0.00045   0.02955  -0.00113
   0.00896   0.00491  -0.04638   0.00047   1.75974  -0.00665  -0.00112   0.03110
  -0.00297  -0.00029   0.03329  -0.00045  -0.00665   0.00089   0.00002  -0.00033
  -0.00035  -0.00006  -0.00046   0.02955  -0.00112   0.00002   0.00066  -0.00006
   0.00224   0.00022  -0.00667  -0.00113   0.03110  -0.00033  -0.00006   0.00079
 
 
================================================================================
 
 ----iterations are completed or convergence reached----
 
 Mean square residual over all n,k,spin=   14.818E-28; max=  20.975E-27
 reduced coordinates (array xred) for   26 atoms
       0.869669289690      0.887862162180      0.824558806910
       0.369669289690      0.612137837820      0.175441193090
       0.137652791930      0.336771618050      0.622486368410
       0.637652791930      0.163228381950      0.377513631590
       0.162016923610      0.121194862290      0.189878692090
       0.662016923610      0.378805137710      0.810121307910
       0.828438006040      0.701219671950      0.288898796280
       0.328438006040      0.798780328050      0.711101203720
       0.324076805380      0.303938936660      0.310448839960
       0.824076805380      0.196061063340      0.689551160040
       0.679353520800      0.780287961790      0.100744284650
       0.179353520800      0.719712038210      0.899255715350
       0.983850210640      0.214732471370      0.353240179920
       0.483850210640      0.285267528630      0.646759820080
       0.044087666290      0.583738832650      0.268646887930
       0.544087666290      0.916261167350      0.731353112070
       0.355631968970      0.956140432110      0.237303556180
       0.174214645540     -0.014353119580      0.643502161350
       0.855631968970      0.543859567890      0.762696443820
       0.674214645540      0.514353119580      0.356497838650
       0.161501640370      0.225678670160      0.965607473082
       0.812105489920      0.862667938090      0.476176209840
       0.312105489920      0.637332061910      0.523823790160
       0.661501640370      0.274321329840      0.034392526918
      -0.007598959179     -0.071148839529      0.143677332080
       0.492401040821      0.571148839529      0.856322667920
 rms dE/dt=  1.7036E-03; max dE/dt=  5.6238E-03; dE/dt below (all hartree)
    1      -0.001198026041     -0.002019168325     -0.000488301054
    2      -0.001198026041      0.002019168325      0.000488301054
    3       0.002862107194      0.000278089833      0.005623799247
    4       0.002862107194     -0.000278089833     -0.005623799247
    5      -0.002916651496     -0.002875010883     -0.001819543956
    6      -0.002916651496      0.002875010883      0.001819543956
    7       0.000009473281      0.001918348212     -0.002116274854
    8       0.000009473281     -0.001918348212      0.002116274854
    9      -0.000043504815     -0.001590781719      0.000726664409
   10      -0.000043504815      0.001590781719     -0.000726664409
   11      -0.001749644228     -0.000738575146      0.001438057446
   12      -0.001749644228      0.000738575146     -0.001438057446
   13      -0.001273977469      0.002023362313      0.000633508318
   14      -0.001273977469     -0.002023362313     -0.000633508318
   15       0.000292335295     -0.000605152174      0.000394402942
   16       0.000292335295      0.000605152174     -0.000394402942
   17       0.001962439305      0.001415702364      0.002225143803
   18      -0.000765278806     -0.000306288876     -0.000170463916
   19       0.001962439305     -0.001415702364     -0.002225143803
   20      -0.000765278806      0.000306288876      0.000170463916
   21       0.000347070581      0.001012801196     -0.001317678308
   22      -0.000621732217     -0.000507048282      0.000992103688
   23      -0.000621732217      0.000507048282     -0.000992103688
   24       0.000347070581     -0.001012801196      0.001317678308
   25      -0.002779554958     -0.000288857436     -0.000026654839
   26      -0.002779554958      0.000288857436      0.000026654839
 
 cartesian coordinates (angstrom) at end:
    1      6.22222286694504     6.35238741174925     5.89947089579898
    2      2.64487286694504     4.37966258825075     1.25522910420102
    3      0.98486443042157     2.40949989566233     4.45370322006303
    4      4.56221443042157     1.16785010433766     2.70099677993697
    5      1.15918248335247     0.86711288122626     1.35852507829632
    6      4.73653248335247     2.71023711877374     5.79617492170368
    7      5.92722540181439     5.01701638690067     2.06698421774452
    8      2.34987540181439     5.71503361309933     5.08771578225548
    9      2.31867231945229     2.17459191012130     2.22116831526181
   10      5.89602231945229     1.40275808987870     4.93353168473819
   11      4.86057063526776     5.58272628021891     0.72079513338535
   12      1.28322063526776     5.14932371978109     6.43390486661464
   13      7.03915310206601     1.53634641291094     2.52732751527362
   14      3.46180310206601     2.04100358708906     4.62737248472638
   15      0.31543402600149     4.17647622596095     1.92208788907277
   16      3.89278402600149     6.55557377403904     5.23261211092723
   17      2.54444004838966     6.84089794961742     1.69783575340105
   18      1.24645352444504    -0.10269226465903     4.60406491381084
   19      6.12179004838966     3.89115205038258     5.45686424659895
   20      4.82380352444504     3.68004226465903     2.55063508618915
   21      1.15549578635524     1.61466318139375     6.90863178765621
   22      5.81037114873062     6.17213029665252     3.40689792854225
   23      2.23302114873062     4.55991970334748     3.74780207145775
   24      4.73284578635524     1.96268681860625     0.24606821234379
   25     -0.05436827323692    -0.50904860218171     1.02796820783278
   26      3.52298172676308     4.08639860218171     6.12673179216722
 
 cartesian forces (hartree/bohr) at end:
    1      0.00005518371814     0.00014934209095     0.00003611581044
    2      0.00005518371814    -0.00014934209095    -0.00003611581044
    3     -0.00024511258663    -0.00002056813026    -0.00041594845169
    4     -0.00024511258663     0.00002056813026     0.00041594845169
    5      0.00018229700323     0.00021264207214     0.00013457743744
    6      0.00018229700323    -0.00021264207214    -0.00013457743744
    7     -0.00003412556394    -0.00014188521559     0.00015652430151
    8     -0.00003412556394     0.00014188521559    -0.00015652430151
    9     -0.00003020718848     0.00011765768367    -0.00005374568375
   10     -0.00003020718848    -0.00011765768367     0.00005374568375
   11      0.00009598260172     0.00005462662779    -0.00010636186351
   12      0.00009598260172    -0.00005462662779     0.00010636186351
   13      0.00006080125135    -0.00014965228743    -0.00004685565617
   14      0.00006080125135     0.00014965228743     0.00004685565617
   15     -0.00005504665509     0.00004475837394    -0.00002917090133
   16     -0.00005504665509    -0.00004475837394     0.00002917090133
   17     -0.00017857118841    -0.00010470843294    -0.00016457648629
   18      0.00002317678927     0.00002265379292     0.00001260788284
   19     -0.00017857118841     0.00010470843294     0.00016457648629
   20      0.00002317678927    -0.00002265379292    -0.00001260788284
   21     -0.00005909499623    -0.00007490898426     0.00009745836006
   22      0.00001255977063     0.00003750239622    -0.00007337815147
   23      0.00001255977063    -0.00003750239622     0.00007337815147
   24     -0.00005909499623     0.00007490898426    -0.00009745836006
   25      0.00017215704444     0.00002136452565     0.00000197145001
   26      0.00017215704444    -0.00002136452565    -0.00000197145001
 frms,max,avg= 1.2451403E-04 4.1594845E-04   3.342E-05  0.000E+00  0.000E+00 h/b
 
 cartesian forces (eV/Angstrom) at end:
    1      0.00283766064127     0.00767947843785     0.00185714948651
    2      0.00283766064127    -0.00767947843785    -0.00185714948651
    3     -0.01260419491877    -0.00105765569405    -0.02138892756752
    4     -0.01260419491877     0.00105765569405     0.02138892756752
    5      0.00937408801975     0.01093449407096     0.00692024949212
    6      0.00937408801975    -0.01093449407096    -0.00692024949212
    7     -0.00175480690538    -0.00729603052225     0.00804880252320
    8     -0.00175480690538     0.00729603052225    -0.00804880252320
    9     -0.00155331595465     0.00605020084484    -0.00276371394608
   10     -0.00155331595465    -0.00605020084484     0.00276371394608
   11      0.00493562341089     0.00280901390628    -0.00546934646672
   12      0.00493562341089    -0.00280901390628     0.00546934646672
   13      0.00312652578927    -0.00769542938130    -0.00240941451245
   14      0.00312652578927     0.00769542938130     0.00240941451245
   15     -0.00283061257676     0.00230156793306    -0.00150002793133
   16     -0.00283061257676    -0.00230156793306     0.00150002793133
   17     -0.00918249893484    -0.00538432365543    -0.00846286247791
   18      0.00119179832254     0.00116490477087     0.00064832334789
   19     -0.00918249893484     0.00538432365543     0.00846286247791
   20      0.00119179832254    -0.00116490477087    -0.00064832334789
   21     -0.00303878663039    -0.00385197452245     0.00501150994981
   22      0.00064584931913     0.00192845058852    -0.00377325594206
   23      0.00064584931913    -0.00192845058852     0.00377325594206
   24     -0.00303878663039     0.00385197452245    -0.00501150994981
   25      0.00885267041795     0.00109860798818     0.00010137602684
   26      0.00885267041795    -0.00109860798818    -0.00010137602684
 frms,max,avg= 6.4027686E-03 2.1388928E-02   1.719E-03  0.000E+00  0.000E+00 e/A
 length scales= 13.520423562957 13.520423562957 13.520423562957 bohr
              =  7.154700000000  7.154700000000  7.154700000000 angstroms
 Fermi (or HOMO) energy (hartree) =   0.12065   Average Vxc (hartree)=  -0.38637
 Eigenvalues (hartree) for nkpt=   8  k points:
 kpt#   1, nband=104, wtk=  0.12500, kpt=  0.0000  0.0000  0.0000 (reduced coord)
  -2.13201   -2.13200   -2.13033   -2.13033   -1.19138   -1.19134   -1.18967   -1.18965
  -1.18706   -1.18705   -1.18453   -1.18453   -1.18224   -1.18222   -1.18162   -1.18162
  -0.98778   -0.98616   -0.98303   -0.98286   -0.52021   -0.51682   -0.51274   -0.51178
  -0.50924   -0.50717   -0.49761   -0.49656   -0.49425   -0.49011   -0.48886   -0.48767
  -0.48499   -0.48275   -0.47745   -0.47464   -0.47321   -0.46702   -0.38479   -0.38268
  -0.38131   -0.37842   -0.37626   -0.37495   -0.36786   -0.36282   -0.36059   -0.35869
  -0.35068   -0.34895   -0.06360   -0.06303   -0.05959   -0.05715   -0.04830   -0.04637
  -0.04348   -0.03934   -0.03724   -0.03196   -0.03078   -0.02843   -0.02729   -0.02258
  -0.02248   -0.01989   -0.01784   -0.01457   -0.01240   -0.00888   -0.00252    0.00415
   0.00638    0.01595    0.02036    0.02666    0.02938    0.03114    0.03438    0.04034
   0.04404    0.04783    0.05456    0.05514    0.06060    0.06101    0.06397    0.06712
   0.07421    0.07458    0.07691    0.07832    0.08258    0.08342    0.08561    0.09040
   0.09237    0.09296    0.09821    0.09925    0.10678    0.10679    0.11135    0.12065
 prteigrs : prtvol=0 or 1, do not print more k-points.
 

--- !EnergyTerms
iteration_state     : {dtset: 2, }
comment             : Components of total free energy in Hartree
kinetic             :  2.13974700007439E+02
hartree             :  1.85537132345823E+02
xc                  : -9.11955997728452E+01
Ewald energy        : -5.04542095746092E+02
psp_core            :  3.63285666352927E+01
local_psp           : -5.78961446368834E+02
spherical_terms     :  4.45114362929333E+01
total_energy        : -6.94347306606284E+02
total_energy_eV     : -1.88941510922207E+04
...


--- !EnergyTermsDC
iteration_state     : {dtset: 2, }
comment             : '"Double-counting" decomposition of free energy'
band_energy         : -7.71848784092147E+01
Ewald energy        : -5.04542095746092E+02
psp_core            :  3.63285666352927E+01
xc_dc               : -1.57678407499380E+02
spherical_terms     :  8.72950841033311E+00
total_energy_dc     : -6.94347306609061E+02
total_energy_dc_eV  : -1.88941510922963E+04
...

 
 Cartesian components of stress tensor (hartree/bohr^3)
  sigma(1 1)=  8.99840710E-05  sigma(3 2)= -7.79268118E-05
  sigma(2 2)=  3.05698194E-05  sigma(3 1)=  0.00000000E+00
  sigma(3 3)=  8.07967097E-06  sigma(2 1)=  0.00000000E+00
 
-Cartesian components of stress tensor (GPa)         [Pressure= -1.2615E+00 GPa]
- sigma(1 1)=  2.64742233E+00  sigma(3 2)= -2.29268557E+00
- sigma(2 2)=  8.99394987E-01  sigma(3 1)=  0.00000000E+00
- sigma(3 3)=  2.37712087E-01  sigma(2 1)=  0.00000000E+00
 
== END DATASET(S) ==============================================================
================================================================================
  
 -outvars: echo values of variables after computation  --------
-          iomode           1
            acell      1.3520423563E+01  1.3520423563E+01  1.3520423563E+01 Bohr
              amu      1.38905500E+02  9.59400000E+01  1.59994000E+01
        autoparal           1
           bandpp          26
     densfor_pred           6
           diemac      4.00000000E+00
             ecut      3.00000000E+01 Hartree
           etotal1    -6.9434730661E+02
           etotal2    -6.9434730661E+02
            fcart1     5.5183718108E-05  1.4934209102E-04  3.6115810611E-05
                       5.5183718108E-05 -1.4934209102E-04 -3.6115810611E-05
                      -2.4511258659E-04 -2.0568130178E-05 -4.1594845155E-04
                      -2.4511258659E-04  2.0568130178E-05  4.1594845155E-04
                       1.8229700361E-04  2.1264207204E-04  1.3457743820E-04
                       1.8229700361E-04 -2.1264207204E-04 -1.3457743820E-04
                      -3.4125564459E-05 -1.4188521583E-04  1.5652430183E-04
                      -3.4125564459E-05  1.4188521583E-04 -1.5652430183E-04
                      -3.0207188461E-05  1.1765768366E-04 -5.3745683722E-05
                      -3.0207188461E-05 -1.1765768366E-04  5.3745683722E-05
                       9.5982601677E-05  5.4626627815E-05 -1.0636186355E-04
                       9.5982601677E-05 -5.4626627815E-05  1.0636186355E-04
                       6.0801251347E-05 -1.4965228742E-04 -4.6855656143E-05
                       6.0801251347E-05  1.4965228742E-04  4.6855656143E-05
                      -5.5046655039E-05  4.4758373918E-05 -2.9170901318E-05
                      -5.5046655039E-05 -4.4758373918E-05  2.9170901318E-05
                      -1.7857118838E-04 -1.0470843295E-04 -1.6457648628E-04
                       2.3176789259E-05  2.2653792933E-05  1.2607882805E-05
                      -1.7857118838E-04  1.0470843295E-04  1.6457648628E-04
                       2.3176789259E-05 -2.2653792933E-05 -1.2607882805E-05
                      -5.9094996189E-05 -7.4908984266E-05  9.7458360047E-05
                       1.2559770664E-05  3.7502396236E-05 -7.3378151442E-05
                       1.2559770664E-05 -3.7502396236E-05  7.3378151442E-05
                      -5.9094996189E-05  7.4908984266E-05 -9.7458360047E-05
                       1.7215704445E-04  2.1364525668E-05  1.9714500072E-06
                       1.7215704445E-04 -2.1364525668E-05 -1.9714500072E-06
            fcart2     5.5183718138E-05  1.4934209095E-04  3.6115810437E-05
                       5.5183718138E-05 -1.4934209095E-04 -3.6115810437E-05
                      -2.4511258663E-04 -2.0568130262E-05 -4.1594845169E-04
                      -2.4511258663E-04  2.0568130262E-05  4.1594845169E-04
                       1.8229700323E-04  2.1264207214E-04  1.3457743744E-04
                       1.8229700323E-04 -2.1264207214E-04 -1.3457743744E-04
                      -3.4125563940E-05 -1.4188521559E-04  1.5652430151E-04
                      -3.4125563940E-05  1.4188521559E-04 -1.5652430151E-04
                      -3.0207188476E-05  1.1765768367E-04 -5.3745683750E-05
                      -3.0207188476E-05 -1.1765768367E-04  5.3745683750E-05
                       9.5982601718E-05  5.4626627792E-05 -1.0636186351E-04
                       9.5982601718E-05 -5.4626627792E-05  1.0636186351E-04
                       6.0801251354E-05 -1.4965228743E-04 -4.6855656169E-05
                       6.0801251354E-05  1.4965228743E-04  4.6855656169E-05
                      -5.5046655094E-05  4.4758373939E-05 -2.9170901325E-05
                      -5.5046655094E-05 -4.4758373939E-05  2.9170901325E-05
                      -1.7857118841E-04 -1.0470843294E-04 -1.6457648629E-04
                       2.3176789272E-05  2.2653792916E-05  1.2607882835E-05
                      -1.7857118841E-04  1.0470843294E-04  1.6457648629E-04
                       2.3176789272E-05 -2.2653792916E-05 -1.2607882835E-05
                      -5.9094996228E-05 -7.4908984263E-05  9.7458360064E-05
                       1.2559770632E-05  3.7502396225E-05 -7.3378151475E-05
                       1.2559770632E-05 -3.7502396225E-05  7.3378151475E-05
                      -5.9094996228E-05  7.4908984263E-05 -9.7458360064E-05
                       1.7215704444E-04  2.1364525653E-05  1.9714500071E-06
                       1.7215704444E-04 -2.1364525653E-05 -1.9714500071E-06
-          fftalg         401
           getwfk1          0
           getwfk2         -1
             iscf           7
           istwfk        2    1    1    1    1    1    1    1
              ixc     -116133
           jdtset        1    2
              kpt      0.00000000E+00  0.00000000E+00  0.00000000E+00
                       5.00000000E-01  0.00000000E+00  0.00000000E+00
                       0.00000000E+00  5.00000000E-01  0.00000000E+00
                       5.00000000E-01  5.00000000E-01  0.00000000E+00
                       0.00000000E+00  0.00000000E+00  5.00000000E-01
                       5.00000000E-01  0.00000000E+00  5.00000000E-01
                       0.00000000E+00  5.00000000E-01  5.00000000E-01
                       5.00000000E-01  5.00000000E-01  5.00000000E-01
         kptrlatt        2    0    0      0    2    0      0    0    2
          kptrlen      2.70408471E+01
P           mkmem           2
            natom          26
            nband         104
           ndtset           2
            ngfft          72      75      75
          ngfftdg          72      75      75
             nkpt           8
-           npfft          15
-           npkpt           4
            nstep1        100
            nstep2        250
             nsym           2
           ntypat           3
              occ      2.000000  2.000000  2.000000  2.000000  2.000000  2.000000
                       2.000000  2.000000  2.000000  2.000000  2.000000  2.000000
                       2.000000  2.000000  2.000000  2.000000  2.000000  2.000000
                       2.000000  2.000000  2.000000  2.000000  2.000000  2.000000
                       2.000000  2.000000  2.000000  2.000000  2.000000  2.000000
                       2.000000  2.000000  2.000000  2.000000  2.000000  2.000000
                       2.000000  2.000000  2.000000  2.000000  2.000000  2.000000
                       2.000000  2.000000  2.000000  2.000000  2.000000  2.000000
                       2.000000  2.000000  2.000000  2.000000  2.000000  2.000000
                       2.000000  2.000000  2.000000  2.000000  2.000000  2.000000
                       2.000000  2.000000  2.000000  2.000000  2.000000  2.000000
                       2.000000  2.000000  2.000000  2.000000  2.000000  2.000000
                       2.000000  2.000000  2.000000  2.000000  2.000000  2.000000
                       2.000000  2.000000  2.000000  2.000000  2.000000  2.000000
                       2.000000  2.000000  2.000000  2.000000  2.000000  2.000000
                       2.000000  2.000000  2.000000  2.000000  2.000000  2.000000
                       2.000000  2.000000  2.000000  2.000000  2.000000  2.000000
                       2.000000  2.000000
        paral_kgb           1
        pawecutdg      3.00000000E+01 Hartree
         pawmixdg           1
         pawxcdev           0
           prtcif           1
           prteig           0
          spgroup           4
           strten1     8.9984071005E-05  3.0569819420E-05  8.0796709749E-06
                      -7.7926811826E-05  0.0000000000E+00  0.0000000000E+00
           strten2     8.9984071005E-05  3.0569819421E-05  8.0796709746E-06
                      -7.7926811826E-05  0.0000000000E+00  0.0000000000E+00
           symrel      1  0  0   0  1  0   0  0  1       1  0  0   0 -1  0   0  0 -1
            tnons      0.0000000  0.0000000  0.0000000     0.5000000  0.5000000  0.0000000
           tolvrs1     1.00000000E-20
           tolvrs2     0.00000000E+00
           tolwfr1     0.00000000E+00
           tolwfr2     1.00000000E-20
            typat      1  1  1  1  2  2  2  2  3  3  3  3  3  3  3  3  3  3  3  3
                       3  3  3  3  3  3
           useylm           1
         wfoptalg         114
              wtk        0.12500    0.12500    0.12500    0.12500    0.12500    0.12500
                         0.12500    0.12500
           xangst      6.2222228669E+00  6.3523874117E+00  5.8994708958E+00
                       2.6448728669E+00  4.3796625883E+00  1.2552291042E+00
                       9.8486443042E-01  2.4094998957E+00  4.4537032201E+00
                       4.5622144304E+00  1.1678501043E+00  2.7009967799E+00
                       1.1591824834E+00  8.6711288123E-01  1.3585250783E+00
                       4.7365324834E+00  2.7102371188E+00  5.7961749217E+00
                       5.9272254018E+00  5.0170163869E+00  2.0669842177E+00
                       2.3498754018E+00  5.7150336131E+00  5.0877157823E+00
                       2.3186723195E+00  2.1745919101E+00  2.2211683153E+00
                       5.8960223195E+00  1.4027580899E+00  4.9335316847E+00
                       4.8605706353E+00  5.5827262802E+00  7.2079513339E-01
                       1.2832206353E+00  5.1493237198E+00  6.4339048666E+00
                       7.0391531021E+00  1.5363464129E+00  2.5273275153E+00
                       3.4618031021E+00  2.0410035871E+00  4.6273724847E+00
                       3.1543402600E-01  4.1764762260E+00  1.9220878891E+00
                       3.8927840260E+00  6.5555737740E+00  5.2326121109E+00
                       2.5444400484E+00  6.8408979496E+00  1.6978357534E+00
                       1.2464535244E+00 -1.0269226466E-01  4.6040649138E+00
                       6.1217900484E+00  3.8911520504E+00  5.4568642466E+00
                       4.8238035244E+00  3.6800422647E+00  2.5506350862E+00
                       1.1554957864E+00  1.6146631814E+00  6.9086317877E+00
                       5.8103711487E+00  6.1721302967E+00  3.4068979285E+00
                       2.2330211487E+00  4.5599197033E+00  3.7478020715E+00
                       4.7328457864E+00  1.9626868186E+00  2.4606821234E-01
                      -5.4368273237E-02 -5.0904860218E-01  1.0279682078E+00
                       3.5229817268E+00  4.0863986022E+00  6.1267317922E+00
            xcart      1.1758297156E+01  1.2004272498E+01  1.1148384322E+01
                       4.9980853748E+00  8.2763628462E+00  2.3720392410E+00
                       1.8611240515E+00  4.5532949200E+00  8.4162793631E+00
                       8.6213358330E+00  2.2069168615E+00  5.1041441999E+00
                       2.1905374316E+00  1.6386058718E+00  2.5672403426E+00
                       8.9507492131E+00  5.1216059097E+00  1.0953183220E+01
                       1.1200832737E+01  9.4807869754E+00  3.9060340925E+00
                       4.4406209558E+00  1.0799848369E+01  9.6143894704E+00
                       4.3816556757E+00  4.1093831609E+00  4.1973998109E+00
                       1.1141867457E+01  2.6508286206E+00  9.3230237521E+00
                       9.1851473502E+00  1.0549823744E+01  1.3621054000E+00
                       2.4249355687E+00  9.7308116000E+00  1.2158318163E+01
                       1.3302071570E+01  2.9032739656E+00  4.7759568520E+00
                       6.5418597889E+00  3.8569378158E+00  8.7444667110E+00
                       5.9608392214E-01  7.8923962676E+00  3.6322197137E+00
                       7.3562957036E+00  1.2388239077E+01  9.8882038493E+00
                       4.8082948530E+00  1.2927423628E+01  3.2084445925E+00
                       2.3554557986E+00 -1.9406025617E-01  8.7004217851E+00
                       1.1568506634E+01  7.3532117166E+00  1.0311978970E+01
                       9.1156675800E+00  6.9542720376E+00  4.8200017778E+00
                       2.1835705839E+00  3.0512712097E+00  1.3055422032E+01
                       1.0980010202E+01  1.1663635917E+01  6.4381040476E+00
                       4.2197984200E+00  8.6169994273E+00  7.0823195153E+00
                       8.9437823654E+00  3.7089405718E+00  4.6500153134E-01
                      -1.0274114674E-01 -9.6196244645E-01  1.9425783861E+00
                       6.6574706347E+00  7.7221742279E+00  1.1577845177E+01
             xred      8.6966928969E-01  8.8786216218E-01  8.2455880691E-01
                       3.6966928969E-01  6.1213783782E-01  1.7544119309E-01
                       1.3765279193E-01  3.3677161805E-01  6.2248636841E-01
                       6.3765279193E-01  1.6322838195E-01  3.7751363159E-01
                       1.6201692361E-01  1.2119486229E-01  1.8987869209E-01
                       6.6201692361E-01  3.7880513771E-01  8.1012130791E-01
                       8.2843800604E-01  7.0121967195E-01  2.8889879628E-01
                       3.2843800604E-01  7.9878032805E-01  7.1110120372E-01
                       3.2407680538E-01  3.0393893666E-01  3.1044883996E-01
                       8.2407680538E-01  1.9606106334E-01  6.8955116004E-01
                       6.7935352080E-01  7.8028796179E-01  1.0074428465E-01
                       1.7935352080E-01  7.1971203821E-01  8.9925571535E-01
                       9.8385021064E-01  2.1473247137E-01  3.5324017992E-01
                       4.8385021064E-01  2.8526752863E-01  6.4675982008E-01
                       4.4087666290E-02  5.8373883265E-01  2.6864688793E-01
                       5.4408766629E-01  9.1626116735E-01  7.3135311207E-01
                       3.5563196897E-01  9.5614043211E-01  2.3730355618E-01
                       1.7421464554E-01 -1.4353119580E-02  6.4350216135E-01
                       8.5563196897E-01  5.4385956789E-01  7.6269644382E-01
                       6.7421464554E-01  5.1435311958E-01  3.5649783865E-01
                       1.6150164037E-01  2.2567867016E-01  9.6560747308E-01
                       8.1210548992E-01  8.6266793809E-01  4.7617620984E-01
                       3.1210548992E-01  6.3733206191E-01  5.2382379016E-01
                       6.6150164037E-01  2.7432132984E-01  3.4392526918E-02
                      -7.5989591788E-03 -7.1148839529E-02  1.4367733208E-01
                       4.9240104082E-01  5.7114883953E-01  8.5632266792E-01
            znucl       57.00000   42.00000    8.00000
 
================================================================================


- Timing analysis has been suppressed with timopt=0



================================================================================

 Suggested references for the acknowledgment of ABINIT usage.

 The users of ABINIT have little formal obligations with respect to the ABINIT group
 (those specified in the GNU General Public License, http://www.gnu.org/copyleft/gpl.txt).
 However, it is common practice in the scientific literature,
 to acknowledge the efforts of people that have made the research possible.
 In this spirit, please find below suggested citations of work written by ABINIT developers,
 corresponding to implementations inside of ABINIT that you have used in the present run.
 Note also that it will be of great value to readers of publications presenting these results,
 to read papers enabling them to understand the theoretical formalism and details
 of the ABINIT implementation.
 For information on why they are suggested, see also https://docs.abinit.org/theory/acknowledgments.
-
- [1] Implementation of the Projector Augmented-Wave Method in the ABINIT code.
- M. Torrent, F. Jollet, F. Bottin, G. Zerah, and X. Gonze Comput. Mat. Science 42, 337, (2008).
- Comment: PAW calculations. Strong suggestion to cite this paper.
- DOI and bibtex: see https://docs.abinit.org/theory/bibliography/#torrent2008
-
- [2] Libxc: A library of exchange and correlation functionals for density functional theory.
- M.A.L. Marques, M.J.T. Oliveira, T. Burnus, Computer Physics Communications 183, 2227 (2012).
- Comment: to be cited when LibXC is used (negative value of ixc)
- Strong suggestion to cite this paper.
- DOI and bibtex: see https://docs.abinit.org/theory/bibliography/#marques2012
-
- [3] Large scale ab initio calculations based on three levels of parallelization
- F. Bottin, S. Leroux, A. Knyazev, G. Zerah, Comput. Mat. Science 42, 329, (2008).
- Comment: in case LOBPCG algorithm is used (wfoptalg=4/14/114).
- Strong suggestion to cite this paper in your publications.
- This paper is also available at http://www.arxiv.org/abs/0707.3405
- DOI and bibtex: see https://docs.abinit.org/theory/bibliography/#bottin2008
-
- [4] The Abinit project: Impact, environment and recent developments.
- Computer Phys. Comm. 248, 107042 (2020).
- X.Gonze, B. Amadon, G. Antonius, F.Arnardi, L.Baguet, J.-M.Beuken,
- J.Bieder, F.Bottin, J.Bouchet, E.Bousquet, N.Brouwer, F.Bruneval,
- G.Brunin, T.Cavignac, J.-B. Charraud, Wei Chen, M.Cote, S.Cottenier,
- J.Denier, G.Geneste, Ph.Ghosez, M.Giantomassi, Y.Gillet, O.Gingras,
- D.R.Hamann, G.Hautier, Xu He, N.Helbig, N.Holzwarth, Y.Jia, F.Jollet,
- W.Lafargue-Dit-Hauret, K.Lejaeghere, M.A.L.Marques, A.Martin, C.Martins,
- H.P.C. Miranda, F.Naccarato, K. Persson, G.Petretto, V.Planes, Y.Pouillon,
- S.Prokhorenko, F.Ricci, G.-M.Rignanese, A.H.Romero, M.M.Schmitt, M.Torrent,
- M.J.van Setten, B.Van Troeye, M.J.Verstraete, G.Zerah and J.W.Zwanzig
- Comment: the fifth generic paper describing the ABINIT project.
- Note that a version of this paper, that is not formatted for Computer Phys. Comm. 
- is available at https://www.abinit.org/sites/default/files/ABINIT20.pdf .
- The licence allows the authors to put it on the Web.
- DOI and bibtex: see https://docs.abinit.org/theory/bibliography/#gonze2020
-
- [5] ABINIT: Overview, and focus on selected capabilities
- J. Chem. Phys. 152, 124102 (2020).
- A. Romero, D.C. Allan, B. Amadon, G. Antonius, T. Applencourt, L.Baguet,
- J.Bieder, F.Bottin, J.Bouchet, E.Bousquet, F.Bruneval,
- G.Brunin, D.Caliste, M.Cote,
- J.Denier, C. Dreyer, Ph.Ghosez, M.Giantomassi, Y.Gillet, O.Gingras,
- D.R.Hamann, G.Hautier, F.Jollet, G. Jomard,
- A.Martin, 
- H.P.C. Miranda, F.Naccarato, G.Petretto, N.A. Pike, V.Planes,
- S.Prokhorenko, T. Rangel, F.Ricci, G.-M.Rignanese, M.Royo, M.Stengel, M.Torrent,
- M.J.van Setten, B.Van Troeye, M.J.Verstraete, J.Wiktor, J.W.Zwanziger, and X.Gonze.
- Comment: a global overview of ABINIT, with focus on selected capabilities .
- Note that a version of this paper, that is not formatted for J. Chem. Phys 
- is available at https://www.abinit.org/sites/default/files/ABINIT20_JPC.pdf .
- The licence allows the authors to put it on the Web.
- DOI and bibtex: see https://docs.abinit.org/theory/bibliography/#romero2020
-
- [6] Recent developments in the ABINIT software package.
- Computer Phys. Comm. 205, 106 (2016).
- X.Gonze, F.Jollet, F.Abreu Araujo, D.Adams, B.Amadon, T.Applencourt,
- C.Audouze, J.-M.Beuken, J.Bieder, A.Bokhanchuk, E.Bousquet, F.Bruneval
- D.Caliste, M.Cote, F.Dahm, F.Da Pieve, M.Delaveau, M.Di Gennaro,
- B.Dorado, C.Espejo, G.Geneste, L.Genovese, A.Gerossier, M.Giantomassi,
- Y.Gillet, D.R.Hamann, L.He, G.Jomard, J.Laflamme Janssen, S.Le Roux,
- A.Levitt, A.Lherbier, F.Liu, I.Lukacevic, A.Martin, C.Martins,
- M.J.T.Oliveira, S.Ponce, Y.Pouillon, T.Rangel, G.-M.Rignanese,
- A.H.Romero, B.Rousseau, O.Rubel, A.A.Shukri, M.Stankovski, M.Torrent,
- M.J.Van Setten, B.Van Troeye, M.J.Verstraete, D.Waroquier, J.Wiktor,
- B.Xu, A.Zhou, J.W.Zwanziger.
- Comment: the fourth generic paper describing the ABINIT project.
- Note that a version of this paper, that is not formatted for Computer Phys. Comm. 
- is available at https://www.abinit.org/sites/default/files/ABINIT16.pdf .
- The licence allows the authors to put it on the Web.
- DOI and bibtex: see https://docs.abinit.org/theory/bibliography/#gonze2016
-
- Proc.   0 individual time (sec): cpu=        383.0  wall=        398.3
 
================================================================================
 
 Calculation completed.
.Delivered   0 WARNINGs and   0 COMMENTs to log file.
+Overall time at end (sec) : cpu=      23670.0  wall=      23885.0
