
.Version 9.3.2 of ABINIT 
.(MPI version, prepared for a x86_64_linux_intel19.1 computer) 

.Copyright (C) 1998-2020 ABINIT group . 
 ABINIT comes with ABSOLUTELY NO WARRANTY.
 It is free software, and you are welcome to redistribute it
 under certain conditions (GNU General Public License,
 see ~abinit/COPYING or http://www.gnu.org/copyleft/gpl.txt).

 ABINIT is a project of the Universite Catholique de Louvain,
 Corning Inc. and other collaborators, see ~abinit/doc/developers/contributors.txt .
 Please read https://docs.abinit.org/theory/acknowledgments for suggested
 acknowledgments of the ABINIT effort.
 For more information, see https://www.abinit.org .

.Starting date : Thu  2 Dec 2021.
- ( at 12h18 )
  
- input  file    -> abi.in
- output file    -> abi.out
- root for input  files -> abi-i
- root for output files -> abi-o
 
- inpspheads : Reading pseudopotential header in XML form from 
-   ~/ABINIT_PAW_PBE/paw_pbe_standard/La.xml
- inpspheads : Reading pseudopotential header in XML form from 
-   ~/ABINIT_PAW_PBE/paw_pbe_standard/Mo.xml
- inpspheads : Reading pseudopotential header in XML form from 
-   ~/ABINIT_PAW_PBE/paw_pbe_standard/O.xml
 
 Symmetries : space group P1 (#  1); Bravais aP (primitive triclinic)
================================================================================
 Values of the parameters that define the memory need of the present run
     intxc =       0    ionmov =       0      iscf =       7    lmnmax =      32
     lnmax =       8     mgfft =      75  mpssoang =       4    mqgrid =    3334
     natom =      26  nloc_mem =       2    nspden =       1   nspinor =       1
    nsppol =       1      nsym =       1    n1xccc =       1    ntypat =       3
    occopt =       1   xclevel =       2
-    mband =         104        mffmem =           1         mkmem =           2
       mpw =        1164          nfft =       27000          nkpt =           4
Pmy_natom=        13
 PAW method is used; the additional fine FFT grid is defined by:
   mgfftf=        75    nfftf =     27000
================================================================================
P This job should need less than                      42.082 Mbytes of memory.
  Rough estimation (10% accuracy) of disk space for files :
_ WF disk file :    110.832 Mbytes ; DEN or POT disk file :      0.208 Mbytes.
================================================================================
 
--------------------------------------------------------------------------------
------------- Echo of variables that govern the present computation ------------
--------------------------------------------------------------------------------
-
- outvars: echo of selected default values                                      
-   iomode0 =  0 , fftalg0 =512 , wfoptalg0 = 10
-
- outvars: echo of global parameters not present in the input file              
-  max_nthreads =    1
-
 -outvars: echo values of preprocessed input variables --------
-          iomode           1
            acell      1.0000000000E+00  1.0000000000E+00  1.0000000000E+00 Bohr
              amu      1.38905500E+02  9.59400000E+01  1.59994000E+01
        autoparal           1
           bandpp          26
     densfor_pred           6
           diemac      4.00000000E+00
             ecut      3.00000000E+01 Hartree
           ecutsm      5.00000000E-01 Hartree
-          fftalg         401
             iscf           7
              ixc     -116133
              kpt      2.50000000E-01  2.50000000E-01  2.50000000E-01
                      -2.50000000E-01  2.50000000E-01  2.50000000E-01
                       2.50000000E-01 -2.50000000E-01  2.50000000E-01
                      -2.50000000E-01 -2.50000000E-01  2.50000000E-01
         kptrlatt        2    0    0      0    2    0      0    0    2
          kptrlen      2.66242889E+01
P           mkmem           2
            natom          26
            nband         104
            ngfft          72      75      75
          ngfftdg          72      75      75
             nkpt           4
-           npfft          15
-           npkpt           2
            nstep           1
             nsym           1
           ntypat           3
              occ      2.000000  2.000000  2.000000  2.000000  2.000000  2.000000
                       2.000000  2.000000  2.000000  2.000000  2.000000  2.000000
                       2.000000  2.000000  2.000000  2.000000  2.000000  2.000000
                       2.000000  2.000000  2.000000  2.000000  2.000000  2.000000
                       2.000000  2.000000  2.000000  2.000000  2.000000  2.000000
                       2.000000  2.000000  2.000000  2.000000  2.000000  2.000000
                       2.000000  2.000000  2.000000  2.000000  2.000000  2.000000
                       2.000000  2.000000  2.000000  2.000000  2.000000  2.000000
                       2.000000  2.000000  2.000000  2.000000  2.000000  2.000000
                       2.000000  2.000000  2.000000  2.000000  2.000000  2.000000
                       2.000000  2.000000  2.000000  2.000000  2.000000  2.000000
                       2.000000  2.000000  2.000000  2.000000  2.000000  2.000000
                       2.000000  2.000000  2.000000  2.000000  2.000000  2.000000
                       2.000000  2.000000  2.000000  2.000000  2.000000  2.000000
                       2.000000  2.000000  2.000000  2.000000  2.000000  2.000000
                       2.000000  2.000000  2.000000  2.000000  2.000000  2.000000
                       2.000000  2.000000  2.000000  2.000000  2.000000  2.000000
                       2.000000  2.000000
        paral_kgb           1
        pawecutdg      3.00000000E+01 Hartree
         pawmixdg           1
         pawxcdev           0
           prtcif           1
           prteig           0
            rprim      1.3569331185E+01  1.2290227038E-02  7.0409472923E-01
                       1.2113497747E-02  1.3312138823E+01 -1.7625121019E-03
                       6.9720798369E-01 -1.7240905135E-03  1.3574604037E+01
           shiftk      5.00000000E-01  5.00000000E-01  5.00000000E-01
          spgroup           1
           tolvrs      1.00000000E-20
            typat      1  1  1  1  2  2  2  2  3  3  3  3  3  3  3  3  3  3  3  3
                       3  3  3  3  3  3
           useylm           1
         wfoptalg         114
              wtk        0.25000    0.25000    0.25000    0.25000
           xangst      6.2017847949E+00  6.1243498692E+00  6.5579540021E+00
                       2.9030725462E+00  4.3977040624E+00  1.3286647443E+00
                       1.5322825743E+00  2.6092566256E+00  4.5710941230E+00
                       4.4683279979E+00  8.7853371451E-01  2.6306652444E+00
                       1.4042272580E+00  1.1370247593E+00  9.2954224190E-01
                       5.3383784927E+00  2.3343250645E+00  5.9707967955E+00
                       5.9637360828E+00  4.6657667818E+00  3.0346395865E+00
                       2.4039667939E+00  5.8578903045E+00  5.1709745426E+00
                       2.3070641777E+00  2.2513782555E+00  2.3088481734E+00
                       6.7405663514E+00  1.2984273551E+00  5.4574593116E+00
                       5.0803432965E+00  5.7743519601E+00  1.6494000734E+00
                       1.0027529246E+00  4.8171338544E+00  5.6758272444E+00
                       6.9863003733E+00  1.1648913082E+00  2.0218060615E+00
                       4.0212205739E+00  2.1959841055E+00  4.8034558435E+00
                       3.9360873232E-01  4.6679931130E+00  1.9679709382E+00
                       3.7162783157E+00  5.7159356667E+00  6.3442597519E+00
                       2.5166839249E+00  6.8617954533E+00  1.5631359977E+00
                       2.3724914534E+00  3.1105200794E-01  4.2219315573E+00
                       5.3566735633E+00  3.8261015490E+00  6.9325405237E+00
                       4.8647162397E+00  3.3418419444E+00  2.4031934455E+00
                       2.1535680964E+00  2.5882995665E+00  7.0111473317E+00
                       5.5753597133E+00  6.1203923254E+00  4.1345111524E+00
                       2.8261159896E+00  4.7076202834E+00  3.8423637530E+00
                       4.5539384894E+00  1.1772794095E+00  1.1345426290E-01
                       9.9831607491E-01  5.9227947927E-02 -5.5280211011E-01
                       6.3580555804E+00  3.5968163534E+00  4.5312801429E+00
            xcart      1.1719674798E+01  1.1573343995E+01  1.2392737056E+01
                       5.4860120563E+00  8.3104562914E+00  2.5108124891E+00
                       2.8955944237E+00  4.9307804329E+00  8.6381160200E+00
                       8.4439161879E+00  1.6601881189E+00  4.9712368592E+00
                       2.6536049460E+00  2.1486654014E+00  1.7565802661E+00
                       1.0088073345E+01  4.4112350770E+00  1.1283170739E+01
                       1.1269827925E+01  8.8170214174E+00  5.7346377306E+00
                       4.5428388731E+00  1.1069808392E+01  9.7717257256E+00
                       4.3597194668E+00  4.2544883245E+00  4.3630907301E+00
                       1.2737824385E+01  2.4536721045E+00  1.0313103480E+01
                       9.6004574915E+00  1.0911943799E+01  3.1169144222E+00
                       1.8949284065E+00  9.1030637303E+00  1.0725759069E+01
                       1.3202194388E+01  2.2013255470E+00  3.8206597501E+00
                       7.5990056046E+00  4.1498085516E+00  9.0772160356E+00
                       7.4381270759E-01  8.8212285738E+00  3.7189261108E+00
                       7.0227482503E+00  1.0801553003E+01  1.1988913447E+01
                       4.7558433812E+00  1.2966914187E+01  2.9538989441E+00
                       4.4833590996E+00  5.8780310809E-01  7.9782943952E+00
                       1.0122646018E+01  7.2302840842E+00  1.3100602995E+01
                       9.1929814072E+00  6.3151660542E+00  4.5413774564E+00
                       4.0696539108E+00  4.8911773306E+00  1.3249148334E+01
                       1.0535902950E+01  1.1565865321E+01  7.8130937714E+00
                       5.3405852400E+00  8.8961130732E+00  7.2610151960E+00
                       8.6056965711E+00  2.2247356659E+00  2.1439748549E-01
                       1.8865439756E+00  1.1192460099E-01 -1.0446445938E+00
                       1.2014983785E+01  6.7969978581E+00  8.5628785014E+00
             xred      8.1817995401E-01  8.6874014332E-01  8.7061044253E-01
                       3.9528358797E-01  6.2393293540E-01  1.6454219081E-01
                       1.8084539430E-01  3.7031155494E-01  6.2701176303E-01
                       6.0496343213E-01  1.2419719482E-01  3.3485353841E-01
                       1.8926957832E-01  1.6124722519E-01  1.1960575420E-01
                       7.0231291925E-01  3.3082391030E-01  7.9481205976E-01
                       8.1039527895E-01  6.6163053274E-01  3.8050530268E-01
                       2.9784638587E-01  8.3137372463E-01  7.0451255413E-01
                       3.0530386439E-01  3.1935236302E-01  3.0562149286E-01
                       9.0192411493E-01  1.8357805028E-01  7.1297748331E-01
                       6.9683409825E-01  8.1908049777E-01  1.9357624271E-01
                       9.8697886418E-02  6.8382732648E-01  7.8510368573E-01
                       9.6089496956E-01  1.6450514249E-01  2.3163759329E-01
                       5.2677905172E-01  3.1132789543E-01  6.4140820441E-01
                       4.0250536565E-02  6.6264353816E-01  2.7196033323E-01
                       4.7269676800E-01  8.1108108930E-01  8.5877419721E-01
                       3.3933248602E-01  9.7377956535E-01  2.0013055409E-01
                       3.0096780817E-01  4.3951656464E-02  5.7213175367E-01
                       6.9777905962E-01  5.4261076508E-01  9.2895945698E-01
                       6.6162987664E-01  4.7381959351E-01  3.0029328658E-01
                       2.5010248747E-01  3.6731618043E-01  9.6309990734E-01
                       7.4808925050E-01  8.6819983726E-01  5.3687741211E-01
                       3.6646988200E-01  6.6799924356E-01  5.1597549522E-01
                       6.3493281634E-01  1.6653241940E-01 -1.7117394207E-02
                       1.4335869576E-01  8.2644265221E-03 -8.4390537402E-02
                       8.5485981686E-01  5.0987318818E-01  5.8652722732E-01
            znucl       57.00000   42.00000    8.00000
 
================================================================================
 
 chkinp: Checking input parameters for consistency.
 
================================================================================
== DATASET  1 ==================================================================
-   mpi_nproc: 30, omp_nthreads: 1 (-1 if OMP is not activated)
 

--- !DatasetInfo
iteration_state: {dtset: 1, }
dimensions: {natom: 26, nkpt: 4, mband: 104, nsppol: 1, nspinor: 1, nspden: 1, mpw: 1164, }
cutoff_energies: {ecut:  30.0, pawecutdg:  30.0, }
electrons: {nelect:   2.08000000E+02, charge:   0.00000000E+00, occopt:   1.00000000E+00, tsmear:   1.00000000E-02, }
meta: {optdriver: 0, ionmov: 0, optcell: 0, iscf: 7, paral_kgb: 1, }
...

 Real(R)+Recip(G) space primitive vectors, cartesian coordinates (Bohr,Bohr^-1):
 R(1)= 13.5693312  0.0122902  0.7040947  G(1)=  0.0738926 -0.0000677 -0.0037952
 R(2)=  0.0121135 13.3121388 -0.0017625  G(2)= -0.0000687  0.0751195  0.0000131
 R(3)=  0.6972080 -0.0017241 13.5746040  G(3)= -0.0038327  0.0000133  0.0738638
 Unit cell volume ucvol=  2.4455363E+03 bohr^3
 Angles (23,13,12)=  9.00121691E+01  8.40894739E+01  8.98965013E+01 degrees
 
 Coarse grid specifications (used for wave-functions):
 
 getcut: wavevector=  0.0000  0.0000  0.0000  ngfft=  72  75  75
         ecut(hartree)=     30.000   => boxcut(ratio)=   2.14921
 
 Fine grid specifications (used for densities):
 
 getcut: wavevector=  0.0000  0.0000  0.0000  ngfft=  72  75  75
         ecut(hartree)=     30.000   => boxcut(ratio)=   2.14921
 
--- Pseudopotential description ------------------------------------------------
- pspini: atom type   1  psp file is ~/ABINIT_PAW_PBE/paw_pbe_standard/La.xml
- pspatm: opening atomic psp file    ~/ABINIT_PAW_PBE/paw_pbe_standard/La.xml
- pspatm : Reading pseudopotential header in XML form from ~/ABINIT_PAW_PBE/paw_pbe_standard/La.xml
 Pseudopotential format is: paw10
 basis_size (lnmax)=  8 (lmn_size= 32), orbitals=   0   0   1   1   2   2   3   3
 Spheres core radius: rc_sph= 2.51647158
 1 radial meshes are used:
  - mesh 1: r(i)=AA*[exp(BB*(i-1))-1], size=1500 , AA= 0.15403E-03 BB= 0.87795E-02
 Shapefunction is SIN type: shapef(r)=[sin(pi*r/rshp)/(pi*r/rshp)]**2
 Radius for shape functions =  2.30494653
 mmax= 1500
 Radial grid used for partial waves is grid 1
 Radial grid used for projectors is grid 1
 Radial grid used for (t)core density is grid 1
 Radial grid used for Vloc is grid 1
 Radial grid used for pseudo valence density is grid 1
 Mesh size for Vloc has been set to 1342 to avoid numerical noise.
 Compensation charge density is not taken into account in XC energy/potential
 pspatm: atomic psp has been read  and splines computed
 
- pspini: atom type   2  psp file is ~/ABINIT_PAW_PBE/paw_pbe_standard/Mo.xml
- pspatm: opening atomic psp file    ~/ABINIT_PAW_PBE/paw_pbe_standard/Mo.xml
- pspatm : Reading pseudopotential header in XML form from ~/ABINIT_PAW_PBE/paw_pbe_standard/Mo.xml
 Pseudopotential format is: paw10
 basis_size (lnmax)=  6 (lmn_size= 18), orbitals=   0   0   1   1   2   2
 Spheres core radius: rc_sph= 2.20000000
 1 radial meshes are used:
  - mesh 1: r(i)=AA*[exp(BB*(i-1))-1], size= 846 , AA= 0.34789E-03 BB= 0.14611E-01
 Shapefunction is SIN type: shapef(r)=[sin(pi*r/rshp)/(pi*r/rshp)]**2
 Radius for shape functions =  1.90088266
 mmax=  846
 Radial grid used for partial waves is grid 1
 Radial grid used for projectors is grid 1
 Radial grid used for (t)core density is grid 1
 Radial grid used for Vloc is grid 1
 Radial grid used for pseudo valence density is grid 1
 Mesh size for Vloc has been set to  751 to avoid numerical noise.
 Compensation charge density is not taken into account in XC energy/potential
 pspatm: atomic psp has been read  and splines computed
 
- pspini: atom type   3  psp file is ~/ABINIT_PAW_PBE/paw_pbe_standard/O.xml
- pspatm: opening atomic psp file    ~/ABINIT_PAW_PBE/paw_pbe_standard/O.xml
- pspatm : Reading pseudopotential header in XML form from ~/ABINIT_PAW_PBE/paw_pbe_standard/O.xml
 Pseudopotential format is: paw10
 basis_size (lnmax)=  4 (lmn_size=  8), orbitals=   0   0   1   1
 Spheres core radius: rc_sph= 1.41465230
 1 radial meshes are used:
  - mesh 1: r(i)=AA*[exp(BB*(i-1))-1], size=2001 , AA= 0.72565E-03 BB= 0.58052E-02
 Shapefunction is SIN type: shapef(r)=[sin(pi*r/rshp)/(pi*r/rshp)]**2
 Radius for shape functions =  1.20231231
 mmax= 2001
 Radial grid used for partial waves is grid 1
 Radial grid used for projectors is grid 1
 Radial grid used for (t)core density is grid 1
 Radial grid used for Vloc is grid 1
 Radial grid used for pseudo valence density is grid 1
 Mesh size for Vloc has been set to 1762 to avoid numerical noise.
 Compensation charge density is not taken into account in XC energy/potential
 pspatm: atomic psp has been read  and splines computed
 
   8.97881771E+04                                ecore*ucvol(ha*bohr**3)
--------------------------------------------------------------------------------
 
_setup2: Arith. and geom. avg. npw (full set) are    1161.500    1161.498
 
================================================================================

--- !BeginCycle
iteration_state: {dtset: 1, }
solver: {iscf: 7, nstep: 1, nline: 4, wfoptalg: 114, }
tolerances: {tolvrs: 1.00E-20, }
...
 
     iter   Etot(hartree)      deltaE(h)  residm     vres2
 ETOT  1  -689.29461174796    -6.893E+02 1.584E-02 2.318E+04
 
 Cartesian components of stress tensor (hartree/bohr^3)
  sigma(1 1)= -2.93797675E-03  sigma(3 2)=  2.28923703E-05
  sigma(2 2)= -2.77470504E-03  sigma(3 1)= -1.47974351E-04
  sigma(3 3)= -2.94539482E-03  sigma(2 1)=  6.24471833E-07
 
 
 scprqt:  WARNING -
  nstep=    1 was not enough SCF cycles to converge;
  potential residual=  2.318E+04 exceeds tolvrs=  1.000E-20
 

--- !ResultsGS
iteration_state: {dtset: 1, }
comment   : Summary of ground state results
lattice_vectors:
- [ 13.5693312,   0.0122902,   0.7040947, ]
- [  0.0121135,  13.3121388,  -0.0017625, ]
- [  0.6972080,  -0.0017241,  13.5746040, ]
lattice_lengths: [  13.58759,   13.31214,   13.59250, ]
lattice_angles: [ 90.012,  84.089,  89.897, ] # degrees, (23, 13, 12)
lattice_volume:   2.4455363E+03
convergence: {deltae: -6.893E+02, res2:  2.318E+04, residm:  1.584E-02, diffor: null, }
etotal    :  -6.89294612E+02
entropy   :   0.00000000E+00
fermie    :   2.86835954E-01
cartesian_stress_tensor: # hartree/bohr^3
- [ -2.93797675E-03,   6.24471833E-07,  -1.47974351E-04, ]
- [  6.24471833E-07,  -2.77470504E-03,   2.28923703E-05, ]
- [ -1.47974351E-04,   2.28923703E-05,  -2.94539482E-03, ]
pressure_GPa:   8.4910E+01
xred      :
- [  8.1818E-01,   8.6874E-01,   8.7061E-01, La]
- [  3.9528E-01,   6.2393E-01,   1.6454E-01, La]
- [  1.8085E-01,   3.7031E-01,   6.2701E-01, La]
- [  6.0496E-01,   1.2420E-01,   3.3485E-01, La]
- [  1.8927E-01,   1.6125E-01,   1.1961E-01, Mo]
- [  7.0231E-01,   3.3082E-01,   7.9481E-01, Mo]
- [  8.1040E-01,   6.6163E-01,   3.8051E-01, Mo]
- [  2.9785E-01,   8.3137E-01,   7.0451E-01, Mo]
- [  3.0530E-01,   3.1935E-01,   3.0562E-01,  O]
- [  9.0192E-01,   1.8358E-01,   7.1298E-01,  O]
- [  6.9683E-01,   8.1908E-01,   1.9358E-01,  O]
- [  9.8698E-02,   6.8383E-01,   7.8510E-01,  O]
- [  9.6089E-01,   1.6451E-01,   2.3164E-01,  O]
- [  5.2678E-01,   3.1133E-01,   6.4141E-01,  O]
- [  4.0251E-02,   6.6264E-01,   2.7196E-01,  O]
- [  4.7270E-01,   8.1108E-01,   8.5877E-01,  O]
- [  3.3933E-01,   9.7378E-01,   2.0013E-01,  O]
- [  3.0097E-01,   4.3952E-02,   5.7213E-01,  O]
- [  6.9778E-01,   5.4261E-01,   9.2896E-01,  O]
- [  6.6163E-01,   4.7382E-01,   3.0029E-01,  O]
- [  2.5010E-01,   3.6732E-01,   9.6310E-01,  O]
- [  7.4809E-01,   8.6820E-01,   5.3688E-01,  O]
- [  3.6647E-01,   6.6800E-01,   5.1598E-01,  O]
- [  6.3493E-01,   1.6653E-01,  -1.7117E-02,  O]
- [  1.4336E-01,   8.2644E-03,  -8.4391E-02,  O]
- [  8.5486E-01,   5.0987E-01,   5.8653E-01,  O]
cartesian_forces: # hartree/bohr
- [ -6.48800670E-02,  -2.97731284E-02,   4.31253624E-02, ]
- [  5.84096061E-02,   4.04836402E-03,   6.40105018E-02, ]
- [  6.90665206E-02,  -3.19503643E-02,  -5.60969612E-02, ]
- [ -5.69685348E-02,   9.41376615E-03,  -5.40858193E-02, ]
- [ -1.12027981E-01,  -3.65755000E-02,  -1.13181333E-01, ]
- [  1.87993417E-02,   9.22784236E-02,  -2.58998282E-02, ]
- [  1.18373662E-01,  -1.88269993E-02,   1.12662151E-01, ]
- [ -7.85378639E-03,   1.20115556E-01,   5.28057247E-02, ]
- [ -3.59249128E-02,  -3.65597971E-02,  -4.26823525E-02, ]
- [ -2.11961962E-02,   9.14194891E-03,   6.25792506E-03, ]
- [  3.58901217E-02,  -2.20530340E-02,   4.73974305E-02, ]
- [  8.57420903E-03,   1.36039411E-02,  -1.23255817E-02, ]
- [  1.38796445E-02,  -8.50562680E-03,  -1.18478285E-02, ]
- [  1.69026272E-02,   2.80896287E-03,   1.76991185E-02, ]
- [ -1.07999630E-02,  -2.71278654E-03,   4.95677262E-03, ]
- [ -2.47106793E-02,   3.37205755E-03,  -2.17062212E-02, ]
- [ -2.93874379E-02,   1.31604825E-02,  -1.66814874E-02, ]
- [ -6.61297685E-03,  -2.99827317E-02,   1.33543530E-02, ]
- [  6.87192065E-03,  -2.78801251E-02,  -1.12278918E-02, ]
- [  4.32229691E-02,   1.17327467E-02,   1.14873181E-02, ]
- [ -7.32060754E-03,  -3.02946128E-02,   4.66938346E-03, ]
- [  2.84361261E-03,  -3.02787721E-02,  -1.17158613E-02, ]
- [ -4.79123147E-03,   3.05732769E-02,   2.18739622E-02, ]
- [ -1.91797922E-03,   9.56736183E-03,  -2.87943560E-02, ]
- [  2.48841559E-02,  -6.81748897E-03,  -5.81515614E-04, ]
- [ -3.33260374E-02,  -7.60592056E-03,   6.52703473E-03, ]
force_length_stats: {min:   1.21888476E-02, max:   1.64497842E-01, mean:   5.78827369E-02, }
...

 Integrated electronic density in atomic spheres:
 ------------------------------------------------
 Atom  Sphere_radius  Integrated_density
    1        2.51647          8.13416553
    2        2.51647          8.20315531
    3        2.51647          8.25792287
    4        2.51647          8.12628003
    5        2.20000          9.80579887
    6        2.20000          9.92126063
    7        2.20000          9.78453194
    8        2.20000          9.92554934
    9        1.41465          5.03920074
   10        1.41465          5.02985894
   11        1.41465          5.08909710
   12        1.41465          5.06676355
   13        1.41465          4.94145959
   14        1.41465          5.04659588
   15        1.41465          4.96117801
   16        1.41465          5.03988492
   17        1.41465          5.00270876
   18        1.41465          5.02751076
   19        1.41465          5.01261466
   20        1.41465          5.06329202
   21        1.41465          4.98624319
   22        1.41465          4.99676421
   23        1.41465          5.03371710
   24        1.41465          5.00849618
   25        1.41465          4.94007222
   26        1.41465          4.93835540
 
 PAW TEST:
 ==== Compensation charge inside spheres ============
 The following values must be close to each other ...
 Compensation charge over spherical meshes =     21.955378891619638
 Compensation charge over fft grid         =     21.955275976063607
 
 ==== Results concerning PAW augmentation regions ====
 
 Total pseudopotential strength Dij (hartree):
 Atom #  1
   0.48338  -0.11955   0.00011   0.00023  -0.00025   0.00006   0.00013  -0.00014   0.00001  -0.00001  -0.00002  -0.00011 ...
  -0.11955   0.02361  -0.00002  -0.00004   0.00004   0.00000   0.00000  -0.00000  -0.00000   0.00000   0.00000   0.00001 ...
   0.00011  -0.00002  -0.17992  -0.00001   0.00001   0.04214  -0.00001   0.00001  -0.00008   0.00006  -0.00002   0.00001 ...
   0.00023  -0.00004  -0.00001  -0.17995  -0.00010  -0.00001   0.04211  -0.00012   0.00001   0.00003   0.00009  -0.00011 ...
  -0.00025   0.00004   0.00001  -0.00010  -0.17991   0.00001  -0.00012   0.04215   0.00000   0.00001   0.00001   0.00006 ...
   0.00006   0.00000   0.04214  -0.00001   0.00001   0.31866  -0.00000   0.00000  -0.00008   0.00005  -0.00002   0.00002 ...
   0.00013   0.00000  -0.00001   0.04211  -0.00012  -0.00000   0.31865  -0.00004   0.00002   0.00003   0.00009  -0.00012 ...
  -0.00014  -0.00000   0.00001  -0.00012   0.04215   0.00000  -0.00004   0.31867  -0.00001   0.00002  -0.00000   0.00006 ...
   0.00001  -0.00000  -0.00008   0.00001   0.00000  -0.00008   0.00002  -0.00001  -0.05843  -0.00004  -0.00000   0.00000 ...
  -0.00001   0.00000   0.00006   0.00003   0.00001   0.00005   0.00003   0.00002  -0.00004  -0.05846  -0.00000   0.00000 ...
  -0.00002   0.00000  -0.00002   0.00009   0.00001  -0.00002   0.00009  -0.00000  -0.00000  -0.00000  -0.05843  -0.00002 ...
  -0.00011   0.00001   0.00001  -0.00011   0.00006   0.00002  -0.00012   0.00006   0.00000   0.00000  -0.00002  -0.05845 ...
   ...  only 12  components have been written...
 Atom # 26
   0.63454  -1.82625  -0.00028   0.00053   0.00005   0.00195  -0.00368  -0.00032
  -1.82625   5.31903   0.00073  -0.00138  -0.00012  -0.00512   0.00967   0.00083
  -0.00028   0.00073  -0.33374   0.00092   0.00017   1.09823  -0.00475  -0.00091
   0.00053  -0.00138   0.00092  -0.33418  -0.00013  -0.00475   1.10047   0.00068
   0.00005  -0.00012   0.00017  -0.00013  -0.33353  -0.00091   0.00068   1.09710
   0.00195  -0.00512   1.09823  -0.00475  -0.00091  -0.97342   0.02365   0.00452
  -0.00368   0.00967  -0.00475   1.10047   0.00068   0.02365  -0.98458  -0.00339
  -0.00032   0.00083  -0.00091   0.00068   1.09710   0.00452  -0.00339  -0.96780
 
 
 Augmentation waves occupancies Rhoij:
 Atom #  1
   2.01826  -0.07176  -0.00264  -0.00087  -0.00317   0.00116   0.00048   0.00087   0.00087   0.00548   0.00051   0.00578 ...
  -0.07176   0.23144   0.01039   0.00600   0.01325  -0.00186   0.00107  -0.00519  -0.00134  -0.01821  -0.00095  -0.02474 ...
  -0.00264   0.01039   2.04268  -0.00535  -0.00021  -0.01859   0.00203   0.00050  -0.00286   0.00325  -0.00610  -0.00968 ...
  -0.00087   0.00600  -0.00535   2.03779  -0.00802   0.00241  -0.01660   0.00375  -0.01295   0.00123   0.00170   0.02562 ...
  -0.00317   0.01325  -0.00021  -0.00802   2.04488   0.00071   0.00409  -0.01949   0.01515  -0.00570   0.01723   0.00015 ...
   0.00116  -0.00186  -0.01859   0.00241   0.00071   0.01472  -0.00055  -0.00018  -0.00159  -0.00006   0.00141   0.00362 ...
   0.00048   0.00107   0.00203  -0.01660   0.00409  -0.00055   0.01392  -0.00205   0.00453   0.00013   0.00129  -0.01089 ...
   0.00087  -0.00519   0.00050   0.00375  -0.01949  -0.00018  -0.00205   0.01536  -0.00360   0.00194  -0.00600   0.00077 ...
   0.00087  -0.00134  -0.00286  -0.01295   0.01515  -0.00159   0.00453  -0.00360   0.12713  -0.02226  -0.00345   0.00932 ...
   0.00548  -0.01821   0.00325   0.00123  -0.00570  -0.00006   0.00013   0.00194  -0.02226   0.07556  -0.00341   0.00721 ...
   0.00051  -0.00095  -0.00610   0.00170   0.01723   0.00141   0.00129  -0.00600  -0.00345  -0.00341   0.11611   0.00011 ...
   0.00578  -0.02474  -0.00968   0.02562   0.00015   0.00362  -0.01089   0.00077   0.00932   0.00721   0.00011   0.08543 ...
   ...  only 12  components have been written...
 Atom # 26
   2.00017   0.01120   0.00970  -0.01500  -0.00148   0.00092  -0.00171  -0.00059
   0.01120   0.00097   0.00134  -0.00121  -0.00258   0.00009  -0.00017  -0.00009
   0.00970   0.00134   1.78410  -0.03752  -0.03022   0.01732  -0.00474  -0.00077
  -0.01500  -0.00121  -0.03752   1.89364   0.00595  -0.00533   0.01748   0.00002
  -0.00148  -0.00258  -0.03022   0.00595   1.81152  -0.00045  -0.00004   0.01612
   0.00092   0.00009   0.01732  -0.00533  -0.00045   0.00039  -0.00020  -0.00003
  -0.00171  -0.00017  -0.00474   0.01748  -0.00004  -0.00020   0.00045   0.00003
  -0.00059  -0.00009  -0.00077   0.00002   0.01612  -0.00003   0.00003   0.00032
 
 
================================================================================
 
 ----iterations are completed or convergence reached----
 
 Mean square residual over all n,k,spin=   62.020E-05; max=  15.835E-03
 reduced coordinates (array xred) for   26 atoms
       0.818179954010      0.868740143320      0.870610442530
       0.395283587970      0.623932935400      0.164542190810
       0.180845394300      0.370311554940      0.627011763030
       0.604963432130      0.124197194820      0.334853538410
       0.189269578320      0.161247225190      0.119605754200
       0.702312919250      0.330823910300      0.794812059760
       0.810395278950      0.661630532740      0.380505302680
       0.297846385870      0.831373724630      0.704512554130
       0.305303864390      0.319352363020      0.305621492860
       0.901924114930      0.183578050280      0.712977483310
       0.696834098250      0.819080497770      0.193576242710
       0.098697886418      0.683827326480      0.785103685730
       0.960894969560      0.164505142490      0.231637593290
       0.526779051720      0.311327895430      0.641408204410
       0.040250536565      0.662643538160      0.271960333230
       0.472696768000      0.811081089300      0.858774197210
       0.339332486020      0.973779565350      0.200130554090
       0.300967808170      0.043951656464      0.572131753670
       0.697779059620      0.542610765080      0.928959456980
       0.661629876640      0.473819593510      0.300293286580
       0.250102487470      0.367316180430      0.963099907340
       0.748089250500      0.868199837260      0.536877412110
       0.366469882000      0.667999243560      0.515975495220
       0.634932816340      0.166532419400     -0.017117394207
       0.143358695760      0.008264426522     -0.084390537402
       0.854859816860      0.509873188180      0.586527227320
 rms dE/dt=  5.7283E-01; max dE/dt=  1.6027E+00; dE/dt below (all hartree)
    1       0.848843076968      0.369872341311     -0.551977986026
    2      -0.839236119591     -0.081820719874     -0.921385716862
    3      -0.898833857517      0.397058565350      0.701533385075
    4       0.809453140347     -0.152056211197      0.762176891224
    5       1.598747065503      0.460722089676      1.602683687321
    6      -0.239530301534     -1.256030169938      0.326880120926
    7      -1.686882482873      0.222058667164     -1.623659443678
    8       0.066376530646     -1.626140355712     -0.722885827704
    9       0.516441169265      0.459715432237      0.592628301913
   10       0.281562059324     -0.148764713929     -0.081906772670
   11      -0.521643810364      0.265888222984     -0.680214088194
   12      -0.109372718411     -0.208556750304      0.149608501395
   13      -0.181428580916      0.085705460990      0.139386080470
   14      -0.243391343319     -0.064900469383     -0.263790166316
   15       0.141553959409      0.008918942004     -0.071512918881
   16       0.349011565240     -0.071961833670      0.300135818279
   17       0.408813861406     -0.202201197298      0.235204595402
   18       0.079161820055      0.371904319260     -0.188472963050
   19      -0.086536832736      0.343707453161      0.135823122755
   20      -0.596276758762     -0.184024898679     -0.197802801527
   21       0.094882769591      0.376049388580     -0.070085112830
   22      -0.031502330067      0.375686511448      0.145251548418
   23       0.047699094649     -0.434232724847     -0.305289015933
   24       0.044644446378     -0.154723176500      0.380473869537
   25      -0.338705739963      0.063119289720     -0.021219178539
   26       0.446172248762      0.074332658461     -0.077131682597
 
 cartesian coordinates (angstrom) at end:
    1      6.20178479494309     6.12434986919590     6.55795400209931
    2      2.90307254623912     4.39770406238895     1.32866474428845
    3      1.53228257434348     2.60925662563343     4.57109412296110
    4      4.46832799789290     0.87853371451079     2.63066524439188
    5      1.40422725803225     1.13702475931586     0.92954224189524
    6      5.33837849265638     2.33432506449039     5.97079679554017
    7      5.96373608281659     4.66576678175640     3.03463958653219
    8      2.40396679393677     5.85789030448284     5.17097454258297
    9      2.30706417766690     2.25137825554425     2.30884817338575
   10      6.74056635140762     1.29842735506603     5.45745931156133
   11      5.08034329654022     5.77435196007845     1.64940007335568
   12      1.00275292463918     4.81713385444134     5.67582724440017
   13      6.98630037329363     1.16489130816067     2.02180606153701
   14      4.02122057388627     2.19598410553405     4.80345584347767
   15      0.39360873231581     4.66799311303372     1.96797093824977
   16      3.71627831572694     5.71593566668599     6.34425975190951
   17      2.51668392493224     6.86179545327590     1.56313599768608
   18      2.37249145344917     0.31105200794102     4.22193155734366
   19      5.35667356327830     3.82610154899668     6.93254052372998
   20      4.86471623966955     3.34184194435688     2.40319344552244
   21      2.15356809643480     2.58829956651485     7.01114733170857
   22      5.57535971327997     6.12039232537259     4.13451115239055
   23      2.82611598955191     4.70762028337746     3.84236375295881
   24      4.55393848944972     1.17727940953448     0.11345426290001
   25      0.99831607491443     0.05922794792675    -0.55280211010716
   26      6.35805558040178     3.59681635336071     4.53128014288438
 
 cartesian forces (hartree/bohr) at end:
    1     -0.06488006703254    -0.02977312840605     0.04312536240163
    2      0.05840960608416     0.00404836401683     0.06401050181141
    3      0.06906652057620    -0.03195036428518    -0.05609696124374
    4     -0.05696853477236     0.00941376614561    -0.05408581925426
    5     -0.11202798145370    -0.03657549997532    -0.11318133303577
    6      0.01879934167602     0.09227842355327    -0.02589982818913
    7      0.11837366224113    -0.01882699932165     0.11266215066463
    8     -0.00785378638815     0.12011555572348     0.05280572470410
    9     -0.03592491280530    -0.03655979713469    -0.04268235252601
   10     -0.02119619619499     0.00914194890577     0.00625792506197
   11      0.03589012174260    -0.02205303400099     0.04739743045011
   12      0.00857420902821     0.01360394106008    -0.01232558166111
   13      0.01387964447285    -0.00850562679768    -0.01184782849342
   14      0.01690262720486     0.00280896286654     0.01769911853894
   15     -0.01079996295660    -0.00271278654147     0.00495677261642
   16     -0.02471067925853     0.00337205754974    -0.02170622122750
   17     -0.02938743789086     0.01316048249221    -0.01668148737321
   18     -0.00661297685292    -0.02998273168740     0.01335435297050
   19      0.00687192065275    -0.02788012513466    -0.01122789178670
   20      0.04322296910177     0.01173274672311     0.01148731805830
   21     -0.00732060754314    -0.03029461281007     0.00466938346109
   22      0.00284361260551    -0.03027877210377    -0.01171586127728
   23     -0.00479123147434     0.03057327685941     0.02187396217495
   24     -0.00191797921542     0.00956736182693    -0.02879435596574
   25      0.02488415588921    -0.00681748896663    -0.00058151561399
   26     -0.03332603743643    -0.00760592055744     0.00652703473382
 frms,max,avg= 4.1413659E-02 1.2011556E-01   6.670E-05  2.053E-03  8.626E-04 h/b
 
 cartesian forces (eV/Angstrom) at end:
    1     -3.33626690686300    -1.53099569032629     2.21759511060412
    2      3.00354245509249     0.20817523029874     3.29155206911243
    3      3.55154298553654    -1.64295365128707    -2.88462148596750
    4     -2.92943959503249     0.48407527761622    -2.78120441549577
    5     -5.76070994160948    -1.88078767101818    -5.82001765954556
    6      0.96670093563649     4.74514692723500    -1.33182260180914
    7      6.08701794005851    -0.96812314883766     5.79332023084846
    8     -0.40385789994972     6.17658969678222     2.71537931264541
    9     -1.84733313644950    -1.87998019855484    -2.19481462878536
   10     -1.08995214017335     0.47009787433255     0.32179541798908
   11      1.84554410822470    -1.13401250797913     2.43727366375448
   12      0.44090351847196     0.69954271685488    -0.63380683905852
   13      0.71371995516825    -0.43737687867982    -0.60923978547907
   14      0.86916796424297     0.14444266602779     0.91012519195589
   15     -0.55535637762793    -0.13949708096255     0.25488747471099
   16     -1.27067411035472     0.17339815641074    -1.11617867962485
   17     -1.51116268828158     0.67673916235463    -0.85779649784537
   18     -0.34005291361950    -1.54177392350486     0.68670838234029
   19      0.35336833805792    -1.43365355648140    -0.57736136097137
   20      2.22261424850675     0.60332204341414     0.59070159510286
   21     -0.37644074368896    -1.55781149430339     0.24010933140512
   22      0.14622442709499    -1.55699693250316    -0.60245375895151
   23     -0.24637500764224     1.57214097465776     1.12480426522438
   24     -0.09862644841663     0.49197348444749    -1.48066519204988
   25      1.27959463662001    -0.35056934845421    -0.02990273265000
   26     -1.71369360300249    -0.39111212753960     0.33563359254040
 frms,max,avg= 2.1295758E+00 6.1765897E+00   3.430E-03  1.056E-01  4.435E-02 e/A
 length scales=  1.000000000000  1.000000000000  1.000000000000 bohr
              =  0.529177208590  0.529177208590  0.529177208590 angstroms
 Fermi (or HOMO) energy (hartree) =   0.28684   Average Vxc (hartree)=  -0.37806
 Eigenvalues (hartree) for nkpt=   4  k points:
 kpt#   1, nband=104, wtk=  0.25000, kpt=  0.2500  0.2500  0.2500 (reduced coord)
  -1.95476   -1.95473   -1.94877   -1.94858   -1.04009   -1.03993   -1.03461   -1.03452
  -1.02916   -1.02875   -1.02323   -1.02308   -1.02283   -1.02266   -1.01810   -1.01797
  -0.98866   -0.98679   -0.98578   -0.98569   -0.61742   -0.61177   -0.59917   -0.59560
  -0.58643   -0.57961   -0.57353   -0.57201   -0.56995   -0.56810   -0.56196   -0.55719
  -0.55495   -0.55190   -0.54912   -0.54642   -0.53123   -0.53012   -0.40135   -0.39959
  -0.39613   -0.39332   -0.38944   -0.38730   -0.38404   -0.38079   -0.37864   -0.37643
  -0.37545   -0.37079   -0.10938   -0.10585   -0.10039   -0.09727   -0.09251   -0.09045
  -0.08807   -0.08378   -0.08169   -0.07778   -0.07594   -0.07422   -0.07110   -0.06807
  -0.06557   -0.06308   -0.05942   -0.05827   -0.05643   -0.05492   -0.05059   -0.04799
  -0.04463   -0.04128   -0.03863   -0.03592   -0.03281   -0.03109   -0.02768   -0.02464
  -0.02294   -0.02080   -0.01959   -0.01600   -0.01451   -0.01108   -0.00955   -0.00831
  -0.00590   -0.00287    0.00080    0.00190    0.00602    0.00963    0.01204    0.01393
   0.01831    0.02124    0.02458    0.02679    0.04419    0.06643    0.09039    0.19655
 prteigrs : prtvol=0 or 1, do not print more k-points.
 

--- !EnergyTerms
iteration_state     : {dtset: 1, }
comment             : Components of total free energy in Hartree
kinetic             :  2.24534503932383E+02
hartree             :  1.85292381590754E+02
xc                  : -9.31782233063527E+01
Ewald energy        : -5.05821481668870E+02
psp_core            :  3.67151277466233E+01
local_psp           : -5.79545453747351E+02
spherical_terms     :  4.27085337048581E+01
total_energy        : -6.89294611747956E+02
total_energy_eV     : -1.87566602729033E+04
...


--- !EnergyTermsDC
iteration_state     : {dtset: 1, }
comment             : '"Double-counting" decomposition of free energy'
band_energy         : -8.08344104861486E+01
Ewald energy        : -5.05821481668870E+02
psp_core            :  3.67151277466233E+01
xc_dc               : -1.56855500623006E+02
spherical_terms     :  7.08410648020770E+00
total_energy_dc     : -6.99712158551193E+02
total_energy_dc_eV  : -1.90401361378457E+04
...

 
 Cartesian components of stress tensor (hartree/bohr^3)
  sigma(1 1)= -2.93797675E-03  sigma(3 2)=  2.28923703E-05
  sigma(2 2)= -2.77470504E-03  sigma(3 1)= -1.47974351E-04
  sigma(3 3)= -2.94539482E-03  sigma(2 1)=  6.24471833E-07
 
-Cartesian components of stress tensor (GPa)         [Pressure=  8.4910E+01 GPa]
- sigma(1 1)= -8.64382458E+01  sigma(3 2)=  6.73516674E-01
- sigma(2 2)= -8.16346270E+01  sigma(3 1)= -4.35355499E+00
- sigma(3 3)= -8.66564929E+01  sigma(2 1)=  1.83725925E-02
 
== END DATASET(S) ==============================================================
================================================================================
  
 -outvars: echo values of variables after computation  --------
-          iomode           1
            acell      1.0000000000E+00  1.0000000000E+00  1.0000000000E+00 Bohr
              amu      1.38905500E+02  9.59400000E+01  1.59994000E+01
        autoparal           1
           bandpp          26
     densfor_pred           6
           diemac      4.00000000E+00
             ecut      3.00000000E+01 Hartree
           ecutsm      5.00000000E-01 Hartree
           etotal     -6.8929461175E+02
            fcart     -6.4880067033E-02 -2.9773128406E-02  4.3125362402E-02
                       5.8409606084E-02  4.0483640168E-03  6.4010501811E-02
                       6.9066520576E-02 -3.1950364285E-02 -5.6096961244E-02
                      -5.6968534772E-02  9.4137661456E-03 -5.4085819254E-02
                      -1.1202798145E-01 -3.6575499975E-02 -1.1318133304E-01
                       1.8799341676E-02  9.2278423553E-02 -2.5899828189E-02
                       1.1837366224E-01 -1.8826999322E-02  1.1266215066E-01
                      -7.8537863882E-03  1.2011555572E-01  5.2805724704E-02
                      -3.5924912805E-02 -3.6559797135E-02 -4.2682352526E-02
                      -2.1196196195E-02  9.1419489058E-03  6.2579250620E-03
                       3.5890121743E-02 -2.2053034001E-02  4.7397430450E-02
                       8.5742090282E-03  1.3603941060E-02 -1.2325581661E-02
                       1.3879644473E-02 -8.5056267977E-03 -1.1847828493E-02
                       1.6902627205E-02  2.8089628665E-03  1.7699118539E-02
                      -1.0799962957E-02 -2.7127865415E-03  4.9567726164E-03
                      -2.4710679259E-02  3.3720575497E-03 -2.1706221227E-02
                      -2.9387437891E-02  1.3160482492E-02 -1.6681487373E-02
                      -6.6129768529E-03 -2.9982731687E-02  1.3354352970E-02
                       6.8719206528E-03 -2.7880125135E-02 -1.1227891787E-02
                       4.3222969102E-02  1.1732746723E-02  1.1487318058E-02
                      -7.3206075431E-03 -3.0294612810E-02  4.6693834611E-03
                       2.8436126055E-03 -3.0278772104E-02 -1.1715861277E-02
                      -4.7912314743E-03  3.0573276859E-02  2.1873962175E-02
                      -1.9179792154E-03  9.5673618269E-03 -2.8794355966E-02
                       2.4884155889E-02 -6.8174889666E-03 -5.8151561399E-04
                      -3.3326037436E-02 -7.6059205574E-03  6.5270347338E-03
-          fftalg         401
             iscf           7
              ixc     -116133
              kpt      2.50000000E-01  2.50000000E-01  2.50000000E-01
                      -2.50000000E-01  2.50000000E-01  2.50000000E-01
                       2.50000000E-01 -2.50000000E-01  2.50000000E-01
                      -2.50000000E-01 -2.50000000E-01  2.50000000E-01
         kptrlatt        2    0    0      0    2    0      0    0    2
          kptrlen      2.66242889E+01
P           mkmem           2
            natom          26
            nband         104
            ngfft          72      75      75
          ngfftdg          72      75      75
             nkpt           4
-           npfft          15
-           npkpt           2
            nstep           1
             nsym           1
           ntypat           3
              occ      2.000000  2.000000  2.000000  2.000000  2.000000  2.000000
                       2.000000  2.000000  2.000000  2.000000  2.000000  2.000000
                       2.000000  2.000000  2.000000  2.000000  2.000000  2.000000
                       2.000000  2.000000  2.000000  2.000000  2.000000  2.000000
                       2.000000  2.000000  2.000000  2.000000  2.000000  2.000000
                       2.000000  2.000000  2.000000  2.000000  2.000000  2.000000
                       2.000000  2.000000  2.000000  2.000000  2.000000  2.000000
                       2.000000  2.000000  2.000000  2.000000  2.000000  2.000000
                       2.000000  2.000000  2.000000  2.000000  2.000000  2.000000
                       2.000000  2.000000  2.000000  2.000000  2.000000  2.000000
                       2.000000  2.000000  2.000000  2.000000  2.000000  2.000000
                       2.000000  2.000000  2.000000  2.000000  2.000000  2.000000
                       2.000000  2.000000  2.000000  2.000000  2.000000  2.000000
                       2.000000  2.000000  2.000000  2.000000  2.000000  2.000000
                       2.000000  2.000000  2.000000  2.000000  2.000000  2.000000
                       2.000000  2.000000  2.000000  2.000000  2.000000  2.000000
                       2.000000  2.000000  2.000000  2.000000  2.000000  2.000000
                       2.000000  2.000000
        paral_kgb           1
        pawecutdg      3.00000000E+01 Hartree
         pawmixdg           1
         pawxcdev           0
           prtcif           1
           prteig           0
            rprim      1.3569331185E+01  1.2290227038E-02  7.0409472923E-01
                       1.2113497747E-02  1.3312138823E+01 -1.7625121019E-03
                       6.9720798369E-01 -1.7240905135E-03  1.3574604037E+01
           shiftk      5.00000000E-01  5.00000000E-01  5.00000000E-01
          spgroup           1
           strten     -2.9379767528E-03 -2.7747050411E-03 -2.9453948233E-03
                       2.2892370290E-05 -1.4797435129E-04  6.2447183261E-07
           tolvrs      1.00000000E-20
            typat      1  1  1  1  2  2  2  2  3  3  3  3  3  3  3  3  3  3  3  3
                       3  3  3  3  3  3
           useylm           1
         wfoptalg         114
              wtk        0.25000    0.25000    0.25000    0.25000
           xangst      6.2017847949E+00  6.1243498692E+00  6.5579540021E+00
                       2.9030725462E+00  4.3977040624E+00  1.3286647443E+00
                       1.5322825743E+00  2.6092566256E+00  4.5710941230E+00
                       4.4683279979E+00  8.7853371451E-01  2.6306652444E+00
                       1.4042272580E+00  1.1370247593E+00  9.2954224190E-01
                       5.3383784927E+00  2.3343250645E+00  5.9707967955E+00
                       5.9637360828E+00  4.6657667818E+00  3.0346395865E+00
                       2.4039667939E+00  5.8578903045E+00  5.1709745426E+00
                       2.3070641777E+00  2.2513782555E+00  2.3088481734E+00
                       6.7405663514E+00  1.2984273551E+00  5.4574593116E+00
                       5.0803432965E+00  5.7743519601E+00  1.6494000734E+00
                       1.0027529246E+00  4.8171338544E+00  5.6758272444E+00
                       6.9863003733E+00  1.1648913082E+00  2.0218060615E+00
                       4.0212205739E+00  2.1959841055E+00  4.8034558435E+00
                       3.9360873232E-01  4.6679931130E+00  1.9679709382E+00
                       3.7162783157E+00  5.7159356667E+00  6.3442597519E+00
                       2.5166839249E+00  6.8617954533E+00  1.5631359977E+00
                       2.3724914534E+00  3.1105200794E-01  4.2219315573E+00
                       5.3566735633E+00  3.8261015490E+00  6.9325405237E+00
                       4.8647162397E+00  3.3418419444E+00  2.4031934455E+00
                       2.1535680964E+00  2.5882995665E+00  7.0111473317E+00
                       5.5753597133E+00  6.1203923254E+00  4.1345111524E+00
                       2.8261159896E+00  4.7076202834E+00  3.8423637530E+00
                       4.5539384894E+00  1.1772794095E+00  1.1345426290E-01
                       9.9831607491E-01  5.9227947927E-02 -5.5280211011E-01
                       6.3580555804E+00  3.5968163534E+00  4.5312801429E+00
            xcart      1.1719674798E+01  1.1573343995E+01  1.2392737056E+01
                       5.4860120563E+00  8.3104562914E+00  2.5108124891E+00
                       2.8955944237E+00  4.9307804329E+00  8.6381160200E+00
                       8.4439161879E+00  1.6601881189E+00  4.9712368592E+00
                       2.6536049460E+00  2.1486654014E+00  1.7565802661E+00
                       1.0088073345E+01  4.4112350770E+00  1.1283170739E+01
                       1.1269827925E+01  8.8170214174E+00  5.7346377306E+00
                       4.5428388731E+00  1.1069808392E+01  9.7717257256E+00
                       4.3597194668E+00  4.2544883245E+00  4.3630907301E+00
                       1.2737824385E+01  2.4536721045E+00  1.0313103480E+01
                       9.6004574915E+00  1.0911943799E+01  3.1169144222E+00
                       1.8949284065E+00  9.1030637303E+00  1.0725759069E+01
                       1.3202194388E+01  2.2013255470E+00  3.8206597501E+00
                       7.5990056046E+00  4.1498085516E+00  9.0772160356E+00
                       7.4381270759E-01  8.8212285738E+00  3.7189261108E+00
                       7.0227482503E+00  1.0801553003E+01  1.1988913447E+01
                       4.7558433812E+00  1.2966914187E+01  2.9538989441E+00
                       4.4833590996E+00  5.8780310809E-01  7.9782943952E+00
                       1.0122646018E+01  7.2302840842E+00  1.3100602995E+01
                       9.1929814072E+00  6.3151660542E+00  4.5413774564E+00
                       4.0696539108E+00  4.8911773306E+00  1.3249148334E+01
                       1.0535902950E+01  1.1565865321E+01  7.8130937714E+00
                       5.3405852400E+00  8.8961130732E+00  7.2610151960E+00
                       8.6056965711E+00  2.2247356659E+00  2.1439748549E-01
                       1.8865439756E+00  1.1192460099E-01 -1.0446445938E+00
                       1.2014983785E+01  6.7969978581E+00  8.5628785014E+00
             xred      8.1817995401E-01  8.6874014332E-01  8.7061044253E-01
                       3.9528358797E-01  6.2393293540E-01  1.6454219081E-01
                       1.8084539430E-01  3.7031155494E-01  6.2701176303E-01
                       6.0496343213E-01  1.2419719482E-01  3.3485353841E-01
                       1.8926957832E-01  1.6124722519E-01  1.1960575420E-01
                       7.0231291925E-01  3.3082391030E-01  7.9481205976E-01
                       8.1039527895E-01  6.6163053274E-01  3.8050530268E-01
                       2.9784638587E-01  8.3137372463E-01  7.0451255413E-01
                       3.0530386439E-01  3.1935236302E-01  3.0562149286E-01
                       9.0192411493E-01  1.8357805028E-01  7.1297748331E-01
                       6.9683409825E-01  8.1908049777E-01  1.9357624271E-01
                       9.8697886418E-02  6.8382732648E-01  7.8510368573E-01
                       9.6089496956E-01  1.6450514249E-01  2.3163759329E-01
                       5.2677905172E-01  3.1132789543E-01  6.4140820441E-01
                       4.0250536565E-02  6.6264353816E-01  2.7196033323E-01
                       4.7269676800E-01  8.1108108930E-01  8.5877419721E-01
                       3.3933248602E-01  9.7377956535E-01  2.0013055409E-01
                       3.0096780817E-01  4.3951656464E-02  5.7213175367E-01
                       6.9777905962E-01  5.4261076508E-01  9.2895945698E-01
                       6.6162987664E-01  4.7381959351E-01  3.0029328658E-01
                       2.5010248747E-01  3.6731618043E-01  9.6309990734E-01
                       7.4808925050E-01  8.6819983726E-01  5.3687741211E-01
                       3.6646988200E-01  6.6799924356E-01  5.1597549522E-01
                       6.3493281634E-01  1.6653241940E-01 -1.7117394207E-02
                       1.4335869576E-01  8.2644265221E-03 -8.4390537402E-02
                       8.5485981686E-01  5.0987318818E-01  5.8652722732E-01
            znucl       57.00000   42.00000    8.00000
 
================================================================================


- Timing analysis has been suppressed with timopt=0



================================================================================

 Suggested references for the acknowledgment of ABINIT usage.

 The users of ABINIT have little formal obligations with respect to the ABINIT group
 (those specified in the GNU General Public License, http://www.gnu.org/copyleft/gpl.txt).
 However, it is common practice in the scientific literature,
 to acknowledge the efforts of people that have made the research possible.
 In this spirit, please find below suggested citations of work written by ABINIT developers,
 corresponding to implementations inside of ABINIT that you have used in the present run.
 Note also that it will be of great value to readers of publications presenting these results,
 to read papers enabling them to understand the theoretical formalism and details
 of the ABINIT implementation.
 For information on why they are suggested, see also https://docs.abinit.org/theory/acknowledgments.
-
- [1] Implementation of the Projector Augmented-Wave Method in the ABINIT code.
- M. Torrent, F. Jollet, F. Bottin, G. Zerah, and X. Gonze Comput. Mat. Science 42, 337, (2008).
- Comment: PAW calculations. Strong suggestion to cite this paper.
- DOI and bibtex: see https://docs.abinit.org/theory/bibliography/#torrent2008
-
- [2] Libxc: A library of exchange and correlation functionals for density functional theory.
- M.A.L. Marques, M.J.T. Oliveira, T. Burnus, Computer Physics Communications 183, 2227 (2012).
- Comment: to be cited when LibXC is used (negative value of ixc)
- Strong suggestion to cite this paper.
- DOI and bibtex: see https://docs.abinit.org/theory/bibliography/#marques2012
-
- [3] Large scale ab initio calculations based on three levels of parallelization
- F. Bottin, S. Leroux, A. Knyazev, G. Zerah, Comput. Mat. Science 42, 329, (2008).
- Comment: in case LOBPCG algorithm is used (wfoptalg=4/14/114).
- Strong suggestion to cite this paper in your publications.
- This paper is also available at http://www.arxiv.org/abs/0707.3405
- DOI and bibtex: see https://docs.abinit.org/theory/bibliography/#bottin2008
-
- [4] The Abinit project: Impact, environment and recent developments.
- Computer Phys. Comm. 248, 107042 (2020).
- X.Gonze, B. Amadon, G. Antonius, F.Arnardi, L.Baguet, J.-M.Beuken,
- J.Bieder, F.Bottin, J.Bouchet, E.Bousquet, N.Brouwer, F.Bruneval,
- G.Brunin, T.Cavignac, J.-B. Charraud, Wei Chen, M.Cote, S.Cottenier,
- J.Denier, G.Geneste, Ph.Ghosez, M.Giantomassi, Y.Gillet, O.Gingras,
- D.R.Hamann, G.Hautier, Xu He, N.Helbig, N.Holzwarth, Y.Jia, F.Jollet,
- W.Lafargue-Dit-Hauret, K.Lejaeghere, M.A.L.Marques, A.Martin, C.Martins,
- H.P.C. Miranda, F.Naccarato, K. Persson, G.Petretto, V.Planes, Y.Pouillon,
- S.Prokhorenko, F.Ricci, G.-M.Rignanese, A.H.Romero, M.M.Schmitt, M.Torrent,
- M.J.van Setten, B.Van Troeye, M.J.Verstraete, G.Zerah and J.W.Zwanzig
- Comment: the fifth generic paper describing the ABINIT project.
- Note that a version of this paper, that is not formatted for Computer Phys. Comm. 
- is available at https://www.abinit.org/sites/default/files/ABINIT20.pdf .
- The licence allows the authors to put it on the Web.
- DOI and bibtex: see https://docs.abinit.org/theory/bibliography/#gonze2020
-
- [5] ABINIT: Overview, and focus on selected capabilities
- J. Chem. Phys. 152, 124102 (2020).
- A. Romero, D.C. Allan, B. Amadon, G. Antonius, T. Applencourt, L.Baguet,
- J.Bieder, F.Bottin, J.Bouchet, E.Bousquet, F.Bruneval,
- G.Brunin, D.Caliste, M.Cote,
- J.Denier, C. Dreyer, Ph.Ghosez, M.Giantomassi, Y.Gillet, O.Gingras,
- D.R.Hamann, G.Hautier, F.Jollet, G. Jomard,
- A.Martin, 
- H.P.C. Miranda, F.Naccarato, G.Petretto, N.A. Pike, V.Planes,
- S.Prokhorenko, T. Rangel, F.Ricci, G.-M.Rignanese, M.Royo, M.Stengel, M.Torrent,
- M.J.van Setten, B.Van Troeye, M.J.Verstraete, J.Wiktor, J.W.Zwanziger, and X.Gonze.
- Comment: a global overview of ABINIT, with focus on selected capabilities .
- Note that a version of this paper, that is not formatted for J. Chem. Phys 
- is available at https://www.abinit.org/sites/default/files/ABINIT20_JPC.pdf .
- The licence allows the authors to put it on the Web.
- DOI and bibtex: see https://docs.abinit.org/theory/bibliography/#romero2020
-
- [6] Recent developments in the ABINIT software package.
- Computer Phys. Comm. 205, 106 (2016).
- X.Gonze, F.Jollet, F.Abreu Araujo, D.Adams, B.Amadon, T.Applencourt,
- C.Audouze, J.-M.Beuken, J.Bieder, A.Bokhanchuk, E.Bousquet, F.Bruneval
- D.Caliste, M.Cote, F.Dahm, F.Da Pieve, M.Delaveau, M.Di Gennaro,
- B.Dorado, C.Espejo, G.Geneste, L.Genovese, A.Gerossier, M.Giantomassi,
- Y.Gillet, D.R.Hamann, L.He, G.Jomard, J.Laflamme Janssen, S.Le Roux,
- A.Levitt, A.Lherbier, F.Liu, I.Lukacevic, A.Martin, C.Martins,
- M.J.T.Oliveira, S.Ponce, Y.Pouillon, T.Rangel, G.-M.Rignanese,
- A.H.Romero, B.Rousseau, O.Rubel, A.A.Shukri, M.Stankovski, M.Torrent,
- M.J.Van Setten, B.Van Troeye, M.J.Verstraete, D.Waroquier, J.Wiktor,
- B.Xu, A.Zhou, J.W.Zwanziger.
- Comment: the fourth generic paper describing the ABINIT project.
- Note that a version of this paper, that is not formatted for Computer Phys. Comm. 
- is available at https://www.abinit.org/sites/default/files/ABINIT16.pdf .
- The licence allows the authors to put it on the Web.
- DOI and bibtex: see https://docs.abinit.org/theory/bibliography/#gonze2016
-
- Proc.   0 individual time (sec): cpu=         17.3  wall=         18.7
 
================================================================================
 
 Calculation completed.
.Delivered   1 WARNINGs and   0 COMMENTs to log file.
+Overall time at end (sec) : cpu=        540.7  wall=        553.1
