
.Version 9.3.2 of ABINIT 
.(MPI version, prepared for a x86_64_linux_intel19.1 computer) 

.Copyright (C) 1998-2020 ABINIT group . 
 ABINIT comes with ABSOLUTELY NO WARRANTY.
 It is free software, and you are welcome to redistribute it
 under certain conditions (GNU General Public License,
 see ~abinit/COPYING or http://www.gnu.org/copyleft/gpl.txt).

 ABINIT is a project of the Universite Catholique de Louvain,
 Corning Inc. and other collaborators, see ~abinit/doc/developers/contributors.txt .
 Please read https://docs.abinit.org/theory/acknowledgments for suggested
 acknowledgments of the ABINIT effort.
 For more information, see https://www.abinit.org .

.Starting date : Fri  3 Dec 2021.
- ( at 13h19 )
  
- input  file    -> abi.in
- output file    -> abi.out
- root for input  files -> abi-i
- root for output files -> abi-o
 
- inpspheads : Reading pseudopotential header in XML form from 
-   ~/ABINIT_PAW_PBE/paw_pbe_standard/La.xml
- inpspheads : Reading pseudopotential header in XML form from 
-   ~/ABINIT_PAW_PBE/paw_pbe_standard/Mo.xml
- inpspheads : Reading pseudopotential header in XML form from 
-   ~/ABINIT_PAW_PBE/paw_pbe_standard/O.xml
 
 Symmetries : space group P1 (#  1); Bravais aP (primitive triclinic)
================================================================================
 Values of the parameters that define the memory need of the present run
     intxc =       0    ionmov =       0      iscf =       7    lmnmax =      32
     lnmax =       8     mgfft =      75  mpssoang =       4    mqgrid =    3334
     natom =      26  nloc_mem =       2    nspden =       1   nspinor =       1
    nsppol =       1      nsym =       1    n1xccc =       1    ntypat =       3
    occopt =       1   xclevel =       2
-    mband =         104        mffmem =           1         mkmem =           1
       mpw =        3875          nfft =       81000          nkpt =           4
Pmy_natom=         7
 PAW method is used; the additional fine FFT grid is defined by:
   mgfftf=        75    nfftf =     81000
================================================================================
P This job should need less than                      88.588 Mbytes of memory.
  Rough estimation (10% accuracy) of disk space for files :
_ WF disk file :    122.988 Mbytes ; DEN or POT disk file :      0.620 Mbytes.
================================================================================
 
--------------------------------------------------------------------------------
------------- Echo of variables that govern the present computation ------------
--------------------------------------------------------------------------------
-
- outvars: echo of selected default values                                      
-   iomode0 =  0 , fftalg0 =512 , wfoptalg0 = 10
-
- outvars: echo of global parameters not present in the input file              
-  max_nthreads =    1
-
 -outvars: echo values of preprocessed input variables --------
-          iomode           1
            acell      1.0000000000E+00  1.0000000000E+00  1.0000000000E+00 Bohr
              amu      1.38905500E+02  9.59400000E+01  1.59994000E+01
        autoparal           1
           bandpp          26
     densfor_pred           6
           diemac      4.00000000E+00
             ecut      3.00000000E+01 Hartree
           ecutsm      5.00000000E-01 Hartree
-          fftalg         401
             iscf           7
              ixc     -116133
              kpt      2.50000000E-01  2.50000000E-01  2.50000000E-01
                      -2.50000000E-01  2.50000000E-01  2.50000000E-01
                       2.50000000E-01 -2.50000000E-01  2.50000000E-01
                      -2.50000000E-01 -2.50000000E-01  2.50000000E-01
         kptrlatt        2    0    0      0    2    0      0    0    2
          kptrlen      2.66256913E+01
P           mkmem           1
            natom          26
            nband         104
            ngfft          72      75      75
          ngfftdg          72      75      75
             nkpt           4
-           npfft           5
-           npkpt           4
            nstep           1
             nsym           1
           ntypat           3
              occ      2.000000  2.000000  2.000000  2.000000  2.000000  2.000000
                       2.000000  2.000000  2.000000  2.000000  2.000000  2.000000
                       2.000000  2.000000  2.000000  2.000000  2.000000  2.000000
                       2.000000  2.000000  2.000000  2.000000  2.000000  2.000000
                       2.000000  2.000000  2.000000  2.000000  2.000000  2.000000
                       2.000000  2.000000  2.000000  2.000000  2.000000  2.000000
                       2.000000  2.000000  2.000000  2.000000  2.000000  2.000000
                       2.000000  2.000000  2.000000  2.000000  2.000000  2.000000
                       2.000000  2.000000  2.000000  2.000000  2.000000  2.000000
                       2.000000  2.000000  2.000000  2.000000  2.000000  2.000000
                       2.000000  2.000000  2.000000  2.000000  2.000000  2.000000
                       2.000000  2.000000  2.000000  2.000000  2.000000  2.000000
                       2.000000  2.000000  2.000000  2.000000  2.000000  2.000000
                       2.000000  2.000000  2.000000  2.000000  2.000000  2.000000
                       2.000000  2.000000  2.000000  2.000000  2.000000  2.000000
                       2.000000  2.000000  2.000000  2.000000  2.000000  2.000000
                       2.000000  2.000000  2.000000  2.000000  2.000000  2.000000
                       2.000000  2.000000
        paral_kgb           1
        pawecutdg      3.00000000E+01 Hartree
         pawmixdg           1
         pawxcdev           0
           prtcif           1
           prteig           0
            rprim      1.3312845533E+01 -3.7277110617E-05 -1.7213280111E-03
                      -1.5878513422E-04  1.3574566677E+01 -6.9086840866E-01
                      -1.6506412678E-03 -7.1552718400E-01  1.3571411610E+01
           shiftk      5.00000000E-01  5.00000000E-01  5.00000000E-01
          spgroup           1
           tolvrs      1.00000000E-20
            typat      1  1  1  1  2  2  2  2  3  3  3  3  3  3  3  3  3  3  3  3
                       3  3  3  3  3  3
           useylm           1
         wfoptalg         114
              wtk        0.25000    0.25000    0.25000    0.25000
           xangst      6.1710477698E+00  5.6599463832E+00  6.1240411656E+00
                       2.6479127189E+00  4.7376756262E+00  5.0970766818E-01
                       9.1759268419E-01  2.4143193619E+00  4.7577847123E+00
                       4.4401784549E+00  8.0303870851E-01  2.2383203423E+00
                       1.1880669892E+00  1.3988022301E+00  1.3795227888E+00
                       4.7105518344E+00  1.8184423775E+00  5.6186724894E+00
                       5.9064080017E+00  4.3330388672E+00  2.0042696056E+00
                       2.3852721922E+00  6.0619120376E+00  4.6272939221E+00
                       2.2270271322E+00  1.9058891364E+00  2.7825859849E+00
                       5.7488938061E+00  1.3145366698E+00  4.2148365741E+00
                       4.7965327727E+00  5.7160169098E+00  1.1127459085E+00
                       1.2730024075E+00  4.6806188044E+00  5.5243670405E+00
                       6.7378401036E+00  4.4250547501E-01  1.3907821353E+00
                       3.2162861235E+00  2.7745939760E+00  5.5992351978E+00
                       1.8418316168E-01  4.9678989148E+00  9.0443355040E-01
                       3.7053047759E+00  5.4304569061E+00  5.7330378842E+00
                       2.3426937803E+00  7.2531334539E+00  5.9872779295E-01
                       9.3153225345E-01 -2.1455952593E-02  5.3767451141E+00
                       5.8654224242E+00  3.1436271749E+00  6.0429734034E+00
                       4.4550686123E+00  3.2310861875E+00  1.6161170353E+00
                       1.3325937038E+00  2.1880191699E+00  7.2451379093E+00
                       5.8934203900E+00  5.0323729305E+00  3.6118969393E+00
                       2.3719315793E+00  5.3491355017E+00  3.0252566308E+00
                       4.8496509588E+00  1.0229919336E+00 -2.5155911029E-01
                       6.9829873003E+00  2.8435993839E+00  2.4004088713E+00
                       3.4594006441E+00  7.5504462764E+00  4.2267797535E+00
            xcart      1.1661590238E+01  1.0695748591E+01  1.1572760629E+01
                       5.0038298625E+00  8.9529094399E+00  9.6320790069E-01
                       1.7339988747E+00  4.5624023914E+00  8.9909101055E+00
                       8.3907212610E+00  1.5175232332E+00  4.2298124446E+00
                       2.2451212370E+00  2.6433531290E+00  2.6069202648E+00
                       8.9016529017E+00  3.4363580820E+00  1.0617752235E+01
                       1.1161493552E+01  8.1882567821E+00  3.7875206510E+00
                       4.5075111956E+00  1.1455353593E+01  8.7443182492E+00
                       4.2084713704E+00  3.6016085074E+00  5.2583254526E+00
                       1.0863834861E+01  2.4841142976E+00  7.9648868200E+00
                       9.0641333279E+00  1.0801706531E+01  2.1027850226E+00
                       2.4056259167E+00  8.8450876727E+00  1.0439540764E+01
                       1.2732672523E+01  8.3621416008E-01  2.6281973463E+00
                       6.0778999384E+00  5.2432227446E+00  1.0581021077E+01
                       3.4805573386E-01  9.3879684048E+00  1.7091317156E+00
                       7.0020112653E+00  1.0262076329E+01  1.0833871511E+01
                       4.4270496580E+00  1.3706435833E+01  1.1314315568E+00
                       1.7603408430E+00 -4.0545874321E-02  1.0160575752E+01
                       1.1084042035E+01  5.9405944244E+00  1.1419564761E+01
                       8.4188595804E+00  6.1058680062E+00  3.0540185954E+00
                       2.5182371466E+00  4.1347570046E+00  1.3691326444E+01
                       1.1136950523E+01  9.5098066372E+00  6.8254960354E+00
                       4.4823010909E+00  1.0108401146E+01  5.7169065138E+00
                       9.1645121523E+00  1.9331745906E+00 -4.7537782468E-01
                       1.3195933587E+01  5.3736240672E+00  4.5361153737E+00
                       6.5373198012E+00  1.4268275644E+01  7.9874561581E+00
             xred      8.7608623747E-01  8.3512293450E-01  8.9535481371E-01
                       3.7588572381E-01  6.6506474327E-01  1.0487686801E-01
                       1.3033898428E-01  3.7201914032E-01  6.8144353725E-01
                       6.3031356052E-01  1.2857102965E-01  3.1829578291E-01
                       1.6867079336E-01  2.0540630397E-01  2.0256694056E-01
                       6.6875380571E-01  2.9518413703E-01  7.9747318008E-01
                       8.3844620645E-01  6.1958679998E-01  3.1072794486E-01
                       3.3867954989E-01  8.8021124043E-01  6.8917011991E-01
                       3.1617437060E-01  2.8651526460E-01  4.0208153684E-01
                       8.1611822449E-01  2.1451632693E-01  5.9791084477E-01
                       6.8089011669E-01  8.0606771196E-01  1.9606241795E-01
                       1.8080764063E-01  6.9400336040E-01  8.0458225748E-01
                       9.5644539970E-01  7.2011608926E-02  1.9744403347E-01
                       4.5664850511E-01  4.2850382991E-01  8.0152656119E-01
                       2.6172737286E-02  7.0010216753E-01  1.6157900894E-01
                       5.2607260736E-01  8.0020871823E-01  8.3908854178E-01
                       3.3256858804E-01  1.0168404999E+00  1.3517436853E-01
                       1.3232224029E-01  3.6575797457E-02  7.5055365481E-01
                       8.3269564350E-01  4.8328464617E-01  8.6615044441E-01
                       6.3242253824E-01  4.6291185292E-01  2.4867850701E-01
                       1.8929007417E-01  3.5873687322E-01  1.0271217650E+00
                       8.3663239765E-01  7.2903469727E-01  5.4015038420E-01
                       3.3675619405E-01  7.6892807492E-01  4.6043215523E-01
                       6.8839442927E-01  1.4094986833E-01 -2.7765354972E-02
                       9.9126712945E-01  4.1459966723E-01  3.5547190082E-01
                       4.9114630194E-01  1.0850427049E+00  6.4384778532E-01
            znucl       57.00000   42.00000    8.00000
 
================================================================================
 
 chkinp: Checking input parameters for consistency.
 
================================================================================
== DATASET  1 ==================================================================
-   mpi_nproc: 20, omp_nthreads: 1 (-1 if OMP is not activated)
 

--- !DatasetInfo
iteration_state: {dtset: 1, }
dimensions: {natom: 26, nkpt: 4, mband: 104, nsppol: 1, nspinor: 1, nspden: 1, mpw: 3875, }
cutoff_energies: {ecut:  30.0, pawecutdg:  30.0, }
electrons: {nelect:   2.08000000E+02, charge:   0.00000000E+00, occopt:   1.00000000E+00, tsmear:   1.00000000E-02, }
meta: {optdriver: 0, ionmov: 0, optcell: 0, iscf: 7, paral_kgb: 1, }
...

 Real(R)+Recip(G) space primitive vectors, cartesian coordinates (Bohr,Bohr^-1):
 R(1)= 13.3128455 -0.0000373 -0.0017213  G(1)=  0.0751154  0.0000013  0.0000092
 R(2)= -0.0001588 13.5745667 -0.6908684  G(2)=  0.0000007  0.0738654  0.0038944
 R(3)= -0.0016506 -0.7155272 13.5714116  G(3)=  0.0000096  0.0037602  0.0738826
 Unit cell volume ucvol=  2.4459917E+03 bohr^3
 Angles (23,13,12)=  9.59315341E+01  9.00143485E+01  9.00004530E+01 degrees
 
 Coarse grid specifications (used for wave-functions):
 
 getcut: wavevector=  0.0000  0.0000  0.0000  ngfft=  72  75  75
         ecut(hartree)=     30.000   => boxcut(ratio)=   2.19349
 
 Fine grid specifications (used for densities):
 
 getcut: wavevector=  0.0000  0.0000  0.0000  ngfft=  72  75  75
         ecut(hartree)=     30.000   => boxcut(ratio)=   2.19349
 
--- Pseudopotential description ------------------------------------------------
- pspini: atom type   1  psp file is ~/ABINIT_PAW_PBE/paw_pbe_standard/La.xml
- pspatm: opening atomic psp file    ~/ABINIT_PAW_PBE/paw_pbe_standard/La.xml
- pspatm : Reading pseudopotential header in XML form from ~/ABINIT_PAW_PBE/paw_pbe_standard/La.xml
 Pseudopotential format is: paw10
 basis_size (lnmax)=  8 (lmn_size= 32), orbitals=   0   0   1   1   2   2   3   3
 Spheres core radius: rc_sph= 2.51647158
 1 radial meshes are used:
  - mesh 1: r(i)=AA*[exp(BB*(i-1))-1], size=1500 , AA= 0.15403E-03 BB= 0.87795E-02
 Shapefunction is SIN type: shapef(r)=[sin(pi*r/rshp)/(pi*r/rshp)]**2
 Radius for shape functions =  2.30494653
 mmax= 1500
 Radial grid used for partial waves is grid 1
 Radial grid used for projectors is grid 1
 Radial grid used for (t)core density is grid 1
 Radial grid used for Vloc is grid 1
 Radial grid used for pseudo valence density is grid 1
 Mesh size for Vloc has been set to 1342 to avoid numerical noise.
 Compensation charge density is not taken into account in XC energy/potential
 pspatm: atomic psp has been read  and splines computed
 
- pspini: atom type   2  psp file is ~/ABINIT_PAW_PBE/paw_pbe_standard/Mo.xml
- pspatm: opening atomic psp file    ~/ABINIT_PAW_PBE/paw_pbe_standard/Mo.xml
- pspatm : Reading pseudopotential header in XML form from ~/ABINIT_PAW_PBE/paw_pbe_standard/Mo.xml
 Pseudopotential format is: paw10
 basis_size (lnmax)=  6 (lmn_size= 18), orbitals=   0   0   1   1   2   2
 Spheres core radius: rc_sph= 2.20000000
 1 radial meshes are used:
  - mesh 1: r(i)=AA*[exp(BB*(i-1))-1], size= 846 , AA= 0.34789E-03 BB= 0.14611E-01
 Shapefunction is SIN type: shapef(r)=[sin(pi*r/rshp)/(pi*r/rshp)]**2
 Radius for shape functions =  1.90088266
 mmax=  846
 Radial grid used for partial waves is grid 1
 Radial grid used for projectors is grid 1
 Radial grid used for (t)core density is grid 1
 Radial grid used for Vloc is grid 1
 Radial grid used for pseudo valence density is grid 1
 Mesh size for Vloc has been set to  751 to avoid numerical noise.
 Compensation charge density is not taken into account in XC energy/potential
 pspatm: atomic psp has been read  and splines computed
 
- pspini: atom type   3  psp file is ~/ABINIT_PAW_PBE/paw_pbe_standard/O.xml
- pspatm: opening atomic psp file    ~/ABINIT_PAW_PBE/paw_pbe_standard/O.xml
- pspatm : Reading pseudopotential header in XML form from ~/ABINIT_PAW_PBE/paw_pbe_standard/O.xml
 Pseudopotential format is: paw10
 basis_size (lnmax)=  4 (lmn_size=  8), orbitals=   0   0   1   1
 Spheres core radius: rc_sph= 1.41465230
 1 radial meshes are used:
  - mesh 1: r(i)=AA*[exp(BB*(i-1))-1], size=2001 , AA= 0.72565E-03 BB= 0.58052E-02
 Shapefunction is SIN type: shapef(r)=[sin(pi*r/rshp)/(pi*r/rshp)]**2
 Radius for shape functions =  1.20231231
 mmax= 2001
 Radial grid used for partial waves is grid 1
 Radial grid used for projectors is grid 1
 Radial grid used for (t)core density is grid 1
 Radial grid used for Vloc is grid 1
 Radial grid used for pseudo valence density is grid 1
 Mesh size for Vloc has been set to 1762 to avoid numerical noise.
 Compensation charge density is not taken into account in XC energy/potential
 pspatm: atomic psp has been read  and splines computed
 
   8.97881771E+04                                ecore*ucvol(ha*bohr**3)
--------------------------------------------------------------------------------
 
_setup2: Arith. and geom. avg. npw (full set) are    3871.000    3870.999
 
================================================================================

--- !BeginCycle
iteration_state: {dtset: 1, }
solver: {iscf: 7, nstep: 1, nline: 4, wfoptalg: 114, }
tolerances: {tolvrs: 1.00E-20, }
...
 
     iter   Etot(hartree)      deltaE(h)  residm     vres2
 ETOT  1  -688.90521394956    -6.889E+02 1.627E-02 2.551E+04
 
 Cartesian components of stress tensor (hartree/bohr^3)
  sigma(1 1)= -2.97346687E-03  sigma(3 2)=  1.69511879E-04
  sigma(2 2)= -3.13008573E-03  sigma(3 1)=  1.89146409E-05
  sigma(3 3)= -3.20278810E-03  sigma(2 1)=  3.75406791E-06
 
 
 scprqt:  WARNING -
  nstep=    1 was not enough SCF cycles to converge;
  potential residual=  2.551E+04 exceeds tolvrs=  1.000E-20
 

--- !ResultsGS
iteration_state: {dtset: 1, }
comment   : Summary of ground state results
lattice_vectors:
- [ 13.3128455,  -0.0000373,  -0.0017213, ]
- [ -0.0001588,  13.5745667,  -0.6908684, ]
- [ -0.0016506,  -0.7155272,  13.5714116, ]
lattice_lengths: [  13.31285,   13.59214,   13.59026, ]
lattice_angles: [ 95.932,  90.014,  90.000, ] # degrees, (23, 13, 12)
lattice_volume:   2.4459917E+03
convergence: {deltae: -6.889E+02, res2:  2.551E+04, residm:  1.627E-02, diffor: null, }
etotal    :  -6.88905214E+02
entropy   :   0.00000000E+00
fermie    :   2.88050221E-01
cartesian_stress_tensor: # hartree/bohr^3
- [ -2.97346687E-03,   3.75406791E-06,   1.89146409E-05, ]
- [  3.75406791E-06,  -3.13008573E-03,   1.69511879E-04, ]
- [  1.89146409E-05,   1.69511879E-04,  -3.20278810E-03, ]
pressure_GPa:   9.1267E+01
xred      :
- [  8.7609E-01,   8.3512E-01,   8.9535E-01, La]
- [  3.7589E-01,   6.6506E-01,   1.0488E-01, La]
- [  1.3034E-01,   3.7202E-01,   6.8144E-01, La]
- [  6.3031E-01,   1.2857E-01,   3.1830E-01, La]
- [  1.6867E-01,   2.0541E-01,   2.0257E-01, Mo]
- [  6.6875E-01,   2.9518E-01,   7.9747E-01, Mo]
- [  8.3845E-01,   6.1959E-01,   3.1073E-01, Mo]
- [  3.3868E-01,   8.8021E-01,   6.8917E-01, Mo]
- [  3.1617E-01,   2.8652E-01,   4.0208E-01,  O]
- [  8.1612E-01,   2.1452E-01,   5.9791E-01,  O]
- [  6.8089E-01,   8.0607E-01,   1.9606E-01,  O]
- [  1.8081E-01,   6.9400E-01,   8.0458E-01,  O]
- [  9.5645E-01,   7.2012E-02,   1.9744E-01,  O]
- [  4.5665E-01,   4.2850E-01,   8.0153E-01,  O]
- [  2.6173E-02,   7.0010E-01,   1.6158E-01,  O]
- [  5.2607E-01,   8.0021E-01,   8.3909E-01,  O]
- [  3.3257E-01,   1.0168E+00,   1.3517E-01,  O]
- [  1.3232E-01,   3.6576E-02,   7.5055E-01,  O]
- [  8.3270E-01,   4.8328E-01,   8.6615E-01,  O]
- [  6.3242E-01,   4.6291E-01,   2.4868E-01,  O]
- [  1.8929E-01,   3.5874E-01,   1.0271E+00,  O]
- [  8.3663E-01,   7.2903E-01,   5.4015E-01,  O]
- [  3.3676E-01,   7.6893E-01,   4.6043E-01,  O]
- [  6.8839E-01,   1.4095E-01,  -2.7765E-02,  O]
- [  9.9127E-01,   4.1460E-01,   3.5547E-01,  O]
- [  4.9115E-01,   1.0850E+00,   6.4385E-01,  O]
cartesian_forces: # hartree/bohr
- [ -1.30193733E-03,  -4.61518626E-02,   5.43554246E-02, ]
- [ -1.65329949E-02,   6.23463966E-02,  -6.16492305E-02, ]
- [  1.21495652E-02,   6.74820550E-02,   6.98563291E-02, ]
- [  3.75835513E-02,  -5.32389189E-02,  -7.98389423E-02, ]
- [ -7.64504437E-02,   6.18878651E-02,   2.58136963E-02, ]
- [ -1.23634912E-01,  -4.55238636E-02,  -2.43184141E-03, ]
- [  3.20887019E-02,  -1.21295416E-01,   1.10021856E-01, ]
- [  3.15195108E-02,   1.41132251E-01,  -1.30143617E-01, ]
- [ -4.94339202E-03,  -1.51746561E-02,  -1.24790475E-02, ]
- [ -5.08344204E-03,   1.09830402E-02,   1.12050613E-02, ]
- [  2.37378484E-02,  -4.82940749E-02,   5.27068554E-02, ]
- [  3.82208161E-02,   3.88539966E-02,  -4.03242940E-02, ]
- [  2.74521942E-02,   1.47108388E-02,   2.10211949E-02, ]
- [  1.75796083E-02,  -2.24223329E-02,   2.21614965E-03, ]
- [  1.47204693E-03,  -2.60137693E-02,   3.00194081E-02, ]
- [ -2.43350194E-02,   1.09882391E-02,  -2.95728411E-02, ]
- [ -1.11175101E-02,   3.17228475E-02,  -4.16811522E-03, ]
- [  3.08855153E-02,  -5.90521141E-03,  -4.52004222E-03, ]
- [ -1.84508120E-02,  -4.28787688E-02,   7.74287929E-03, ]
- [  2.93013033E-02,  -1.06333087E-04,   8.48891613E-03, ]
- [ -9.43562280E-03,  -3.22802704E-02,   1.25229092E-02, ]
- [ -2.49900578E-03,  -3.73530282E-03,  -1.74174002E-02, ]
- [  4.65759646E-04,  -2.80163865E-03,   4.22466582E-04, ]
- [ -9.94443576E-03,   2.99273833E-02,  -1.25224507E-02, ]
- [  1.84267391E-02,  -7.14700450E-03,  -4.29872069E-02, ]
- [  2.84636716E-03,   2.93451080E-03,   3.16618827E-02, ]
force_length_stats: {min:   2.87133927E-03, max:   1.94548587E-01, mean:   6.13605191E-02, }
...

 Integrated electronic density in atomic spheres:
 ------------------------------------------------
 Atom  Sphere_radius  Integrated_density
    1        2.51647          8.65903675
    2        2.51647          8.20594291
    3        2.51647          8.19050626
    4        2.51647          8.22838314
    5        2.20000          9.92138028
    6        2.20000          9.94129818
    7        2.20000          9.77978470
    8        2.20000          9.79186695
    9        1.41465          5.01128302
   10        1.41465          5.04188656
   11        1.41465          5.05613474
   12        1.41465          5.08440151
   13        1.41465          5.04316655
   14        1.41465          5.03546196
   15        1.41465          4.98742155
   16        1.41465          4.99770349
   17        1.41465          4.98208947
   18        1.41465          4.91388802
   19        1.41465          4.96596447
   20        1.41465          4.99003198
   21        1.41465          4.96437196
   22        1.41465          4.94467544
   23        1.41465          4.91030512
   24        1.41465          4.96633499
   25        1.41465          4.95685715
   26        1.41465          4.88994713
 
 PAW TEST:
 ==== Compensation charge inside spheres ============
 The following values must be close to each other ...
 Compensation charge over spherical meshes =     22.285837596809976
 Compensation charge over fft grid         =     22.285762398948542
 
 ==== Results concerning PAW augmentation regions ====
 
 Total pseudopotential strength Dij (hartree):
 Atom #  1
   0.48406  -0.11969  -0.00027   0.00047   0.00013  -0.00015   0.00026   0.00007  -0.00008   0.00002  -0.00003  -0.00008 ...
  -0.11969   0.02364   0.00005  -0.00008  -0.00002  -0.00000   0.00000   0.00000   0.00001  -0.00000   0.00000   0.00001 ...
  -0.00027   0.00005  -0.17978   0.00001  -0.00008   0.04224   0.00002  -0.00010   0.00004   0.00013   0.00004  -0.00001 ...
   0.00047  -0.00008   0.00001  -0.17979  -0.00008   0.00002   0.04223  -0.00009  -0.00001  -0.00008   0.00017   0.00003 ...
   0.00013  -0.00002  -0.00008  -0.00008  -0.17969  -0.00010  -0.00009   0.04234  -0.00009  -0.00001  -0.00003   0.00012 ...
  -0.00015  -0.00000   0.04224   0.00002  -0.00010   0.31865   0.00001  -0.00003   0.00004   0.00012   0.00004  -0.00001 ...
   0.00026   0.00000   0.00002   0.04223  -0.00009   0.00001   0.31864  -0.00003  -0.00001  -0.00008   0.00017   0.00003 ...
   0.00007   0.00000  -0.00010  -0.00009   0.04234  -0.00003  -0.00003   0.31868  -0.00009  -0.00001  -0.00003   0.00011 ...
  -0.00008   0.00001   0.00004  -0.00001  -0.00009   0.00004  -0.00001  -0.00009  -0.05839  -0.00003   0.00003   0.00000 ...
   0.00002  -0.00000   0.00013  -0.00008  -0.00001   0.00012  -0.00008  -0.00001  -0.00003  -0.05842  -0.00000  -0.00003 ...
  -0.00003   0.00000   0.00004   0.00017  -0.00003   0.00004   0.00017  -0.00003   0.00003  -0.00000  -0.05841  -0.00001 ...
  -0.00008   0.00001  -0.00001   0.00003   0.00012  -0.00001   0.00003   0.00011   0.00000  -0.00003  -0.00001  -0.05840 ...
   ...  only 12  components have been written...
 Atom # 26
   0.63449  -1.82612   0.00054  -0.00006   0.00029  -0.00370   0.00040  -0.00203
  -1.82612   5.31858  -0.00139   0.00015  -0.00076   0.00973  -0.00104   0.00534
   0.00054  -0.00139  -0.33411   0.00014  -0.00092   1.10012  -0.00073   0.00478
  -0.00006   0.00015   0.00014  -0.33344   0.00018  -0.00073   1.09665  -0.00094
   0.00029  -0.00076  -0.00092   0.00018  -0.33367   0.00478  -0.00094   1.09783
  -0.00370   0.00973   1.10012  -0.00073   0.00478  -0.98269   0.00365  -0.02381
   0.00040  -0.00104  -0.00073   1.09665  -0.00094   0.00365  -0.96544   0.00469
  -0.00203   0.00534   0.00478  -0.00094   1.09783  -0.02381   0.00469  -0.97129
 
 
 Augmentation waves occupancies Rhoij:
 Atom #  1
   2.01767  -0.07069  -0.00488   0.00211   0.00242   0.00208  -0.00110  -0.00110   0.00861   0.00357   0.00080   0.00418 ...
  -0.07069   0.24900   0.01295   0.00252  -0.00751  -0.00599   0.00596   0.00570  -0.01343   0.00197  -0.01409  -0.00585 ...
  -0.00488   0.01295   2.03587  -0.00055  -0.00748  -0.01566   0.00097   0.00351  -0.00331   0.00230   0.00193   0.00417 ...
   0.00211   0.00252  -0.00055   2.03685  -0.00441   0.00007  -0.01558   0.00120   0.00303   0.01453  -0.00416  -0.01149 ...
   0.00242  -0.00751  -0.00748  -0.00441   2.04309   0.00298   0.00159  -0.01821   0.00666   0.00905  -0.00760   0.01511 ...
   0.00208  -0.00599  -0.01566   0.00007   0.00298   0.01367   0.00004  -0.00167   0.00264   0.00332  -0.00072  -0.00119 ...
  -0.00110   0.00596   0.00097  -0.01558   0.00159   0.00004   0.01334  -0.00082  -0.00035  -0.00593   0.00464   0.00491 ...
  -0.00110   0.00570   0.00351   0.00120  -0.01821  -0.00167  -0.00082   0.01545  -0.00403  -0.00242   0.00185  -0.00140 ...
   0.00861  -0.01343  -0.00331   0.00303   0.00666   0.00264  -0.00035  -0.00403   0.11500  -0.00746  -0.00330   0.00169 ...
   0.00357   0.00197   0.00230   0.01453   0.00905   0.00332  -0.00593  -0.00242  -0.00746   0.09243  -0.00328  -0.00538 ...
   0.00080  -0.01409   0.00193  -0.00416  -0.00760  -0.00072   0.00464   0.00185  -0.00330  -0.00328   0.10983   0.00523 ...
   0.00418  -0.00585   0.00417  -0.01149   0.01511  -0.00119   0.00491  -0.00140   0.00169  -0.00538   0.00523   0.11102 ...
   ...  only 12  components have been written...
 Atom # 26
   1.99525   0.00973  -0.01738   0.00052  -0.00909  -0.00189   0.00072  -0.00094
   0.00973   0.00097  -0.00356   0.00345  -0.00157  -0.00017   0.00006  -0.00012
  -0.01738  -0.00356   1.79510   0.00869   0.08560   0.01900  -0.00074   0.00352
   0.00052   0.00345   0.00869   1.79323  -0.01066  -0.00025   0.01602  -0.00039
  -0.00909  -0.00157   0.08560  -0.01066   1.81515   0.00442  -0.00030   0.01608
  -0.00189  -0.00017   0.01900  -0.00025   0.00442   0.00053  -0.00005   0.00016
   0.00072   0.00006  -0.00074   0.01602  -0.00030  -0.00005   0.00032  -0.00003
  -0.00094  -0.00012   0.00352  -0.00039   0.01608   0.00016  -0.00003   0.00039
 
 
================================================================================
 
 ----iterations are completed or convergence reached----
 
 Mean square residual over all n,k,spin=   67.827E-05; max=  16.273E-03
 reduced coordinates (array xred) for   26 atoms
       0.876086237470      0.835122934500      0.895354813710
       0.375885723810      0.665064743270      0.104876868010
       0.130338984280      0.372019140320      0.681443537250
       0.630313560520      0.128571029650      0.318295782910
       0.168670793360      0.205406303970      0.202566940560
       0.668753805710      0.295184137030      0.797473180080
       0.838446206450      0.619586799980      0.310727944860
       0.338679549890      0.880211240430      0.689170119910
       0.316174370600      0.286515264600      0.402081536840
       0.816118224490      0.214516326930      0.597910844770
       0.680890116690      0.806067711960      0.196062417950
       0.180807640630      0.694003360400      0.804582257480
       0.956445399700      0.072011608926      0.197444033470
       0.456648505110      0.428503829910      0.801526561190
       0.026172737286      0.700102167530      0.161579008940
       0.526072607360      0.800208718230      0.839088541780
       0.332568588040      1.016840499900      0.135174368530
       0.132322240290      0.036575797457      0.750553654810
       0.832695643500      0.483284646170      0.866150444410
       0.632422538240      0.462911852920      0.248678507010
       0.189290074170      0.358736873220      1.027121765000
       0.836632397650      0.729034697270      0.540150384200
       0.336756194050      0.768928074920      0.460432155230
       0.688394429270      0.140949868330     -0.027765354972
       0.991267129450      0.414599667230      0.355471900820
       0.491146301940      1.085042704900      0.643847785320
 rms dE/dt=  6.1554E-01; max dE/dt=  1.8915E+00; dE/dt below (all hartree)
    1       0.016684379341      0.645074722103     -0.746468569096
    2       0.219257458219     -0.907888500971      0.905486667094
    3      -0.162362477544     -0.886745247412     -0.875507363567
    4      -0.501223381347      0.648573966033      1.069731625438
    5       1.017079734003     -0.841248274959     -0.281935706762
    6       1.645186644767      0.597297956031      0.024462215040
    7      -0.427747023597      1.703579373199     -1.555652758449
    8      -0.420573091356     -2.024685308532      1.891504918612
    9       0.065048613885      0.178398164688      0.182728583944
   10       0.066954821310     -0.160318647526     -0.119981893359
   11      -0.316669337197      0.673019358345     -0.725586637054
   12      -0.509635737923     -0.574247931306      0.599358104312
   13      -0.366170042964     -0.204135076282     -0.250479636869
   14      -0.234771585623      0.286938260156     -0.021854716994
   15      -0.020286384212      0.354896288178     -0.401780539616
   16       0.323177904685     -0.188564442585      0.433403747857
   17       0.147259748573     -0.452474346020      0.103483749148
   18      -0.411922049074      0.058073783363      0.081405328249
   19       0.244904585471      0.568438035335     -0.111556849150
   20      -0.390809070514     -0.011656250216     -0.090997959995
   21       0.124895387163      0.427871815157     -0.168830208263
   22       0.032498803309      0.019702536468      0.257938205243
   23      -0.006939917800      0.019353921057      0.016498985466
   24       0.131628343165     -0.433873257239      0.215581106994
   25      -0.246126546923      0.048352859480      0.602549951912
   26      -0.038578590774     -0.036929118390     -0.403355688308
 
 cartesian coordinates (angstrom) at end:
    1      6.17104776983178     5.65994638324674     6.12404116558019
    2      2.64791271889704     4.73767562616714     0.50970766817839
    3      0.91759268418993     2.41431936193302     4.75778471232616
    4      4.44017845493387     0.80303870850968     2.23832034230489
    5      1.18806698916224     1.39880223009793     1.37952278876808
    6      4.71055183438089     1.81844237753012     5.61867248937438
    7      5.90640800169948     4.33303886718700     2.00426960558315
    8      2.38527219218934     6.06191203756881     4.62729392213305
    9      2.22702713222607     1.90588913635791     2.78258598486922
   10      5.74889380613215     1.31453666981852     4.21483657414408
   11      4.79653277272443     5.71601690984612     1.11274590853892
   12      1.27300240752242     4.68061880435169     5.52436704049199
   13      6.73784010355927     0.44250547501393     1.39078213532784
   14      3.21628612346609     2.77459397599748     5.59923519781569
   15      0.18418316167580     4.96789891476496     0.90443355039892
   16      3.70530477587507     5.43045690613597     5.73303788421808
   17      2.34269378031782     7.25313345385035     0.59872779294724
   18      0.93153225345260    -0.02145595259294     5.37674511411499
   19      5.86542242422672     3.14362717486255     6.04297340337284
   20      4.45506861225581     3.23108618753543     1.61611703531575
   21      1.33259370381555     2.18801916989844     7.24513790930868
   22      5.89342039000374     5.03237293048926     3.61189693928033
   23      2.37193157932116     5.34913550168000     3.02525663076242
   24      4.84965095881698     1.02299193358379    -0.25155911028777
   25      6.98298730032324     2.84359938389899     2.40040887128846
   26      3.45940064408255     7.55044627642665     4.22677975350397
 
 cartesian forces (hartree/bohr) at end:
    1     -0.00130193733087    -0.04615186255364     0.05435542463450
    2     -0.01653299487921     0.06234639659516    -0.06164923048781
    3      0.01214956516968     0.06748205500422     0.06985632912074
    4      0.03758355132850    -0.05323891885134    -0.07983894233964
    5     -0.07645044367244     0.06188786505423     0.02581369628453
    6     -0.12363491171585    -0.04552386362787    -0.00243184140858
    7      0.03208870187569    -0.12129541554675     0.11002185581720
    8      0.03151951077127     0.14113225069794    -0.13014361710305
    9     -0.00494339202462    -0.01517465614683    -0.01247904745720
   10     -0.00508344204004     0.01098304015216     0.01120506132495
   11      0.02373784835122    -0.04829407492670     0.05270685540916
   12      0.03822081608038     0.03885399656350    -0.04032429398490
   13      0.02745219423410     0.01471083881665     0.02102119492118
   14      0.01757960832537    -0.02242233292766     0.00221614964556
   15      0.00147204693009    -0.02601376931810     0.03001940808962
   16     -0.02433501937563     0.01098823911182    -0.02957284111893
   17     -0.01111751013053     0.03172284754819    -0.00416811521690
   18      0.03088551528066    -0.00590521140504    -0.00452004222146
   19     -0.01845081200529    -0.04287876884728     0.00774287929044
   20      0.02930130327592    -0.00010633308677     0.00848891612584
   21     -0.00943562279610    -0.03228027043831     0.01252290921961
   22     -0.00249900578144    -0.00373530282349    -0.01741740023499
   23      0.00046575964597    -0.00280163865048     0.00042246658153
   24     -0.00994443575750     0.02992738331528    -0.01252245065703
   25      0.01842673908256    -0.00714700450497    -0.04298720690175
   26      0.00284636715812     0.00293451079610     0.03166188266734
 frms,max,avg= 4.4484925E-02 1.4113225E-01   5.536E-05  1.310E-03 -1.717E-03 h/b
 
 cartesian forces (eV/Angstrom) at end:
    1     -0.06694830370049    -2.37322399267237     2.79506808039560
    2     -0.85016070743549     3.20598034552403    -3.17013062589597
    3      0.62475570791359     3.47006649676804     3.59215657042373
    4      1.93262375140244    -2.73765504945950    -4.10548313818918
    5     -3.93123954559801     3.18240170765048     1.32739352156803
    6     -6.35756224301764    -2.34093099222645    -0.12505030258553
    7      1.65006725560812    -6.23726052317224     5.65755082235803
    8      1.62079827466819     7.25731151385035    -6.69225330273790
    9     -0.25419941707400    -0.78031212730274    -0.64169836692269
   10     -0.26140107781720     0.56477058474694     0.57618737152444
   11      1.22064913796400    -2.48338097269095     2.71029524951329
   12      1.96539321974390     1.99795266655852    -2.07355839347333
   13      1.41164846667102     0.75646168324039     1.08095321361314
   14      0.90397973020192    -1.15300262072340     0.11395898711764
   15      0.07569569026093    -1.33768168974339     1.54365989977771
   16     -1.25135690411749     0.56503792597949    -1.52069650479099
   17     -0.57168530847207     1.63125427126022    -0.21433308407565
   18      1.58819691848630    -0.30365815403346    -0.23242989674360
   19     -0.94877882088408    -2.20491476126969     0.39815482816270
   20      1.50673346866904    -0.00546786670719     0.43651758145660
   21     -0.48519919167912    -1.65991810634072     0.64395382924108
   22     -0.12850403321113    -0.19207697783163    -0.89563865552807
   23      0.02395032194768    -0.14406603972655     0.02172410325201
   24     -0.51136340393343     1.53892779601610    -0.64393024900727
   25      0.94754094152992    -0.36751371728955    -2.21049086975880
   26      0.14636607187309     0.15089859959526     1.62811933130498
 frms,max,avg= 2.2875066E+00 7.2573115E+00   2.847E-03  6.736E-02 -8.828E-02 e/A
 length scales=  1.000000000000  1.000000000000  1.000000000000 bohr
              =  0.529177208590  0.529177208590  0.529177208590 angstroms
 Fermi (or HOMO) energy (hartree) =   0.28805   Average Vxc (hartree)=  -0.37822
 Eigenvalues (hartree) for nkpt=   4  k points:
 kpt#   1, nband=104, wtk=  0.25000, kpt=  0.2500  0.2500  0.2500 (reduced coord)
  -1.95484   -1.95480   -1.94875   -1.94870   -1.04011   -1.03998   -1.03469   -1.03454
  -1.02915   -1.02897   -1.02333   -1.02314   -1.02282   -1.02279   -1.01808   -1.01799
  -0.98867   -0.98709   -0.98615   -0.98557   -0.61784   -0.61189   -0.59786   -0.59518
  -0.58733   -0.57997   -0.57605   -0.57388   -0.56873   -0.56774   -0.56033   -0.55791
  -0.55613   -0.55098   -0.54867   -0.54662   -0.53115   -0.53040   -0.40114   -0.39933
  -0.39582   -0.39359   -0.38891   -0.38823   -0.38625   -0.38128   -0.37888   -0.37764
  -0.37246   -0.37035   -0.10906   -0.10553   -0.09930   -0.09690   -0.09320   -0.08995
  -0.08713   -0.08324   -0.07997   -0.07825   -0.07491   -0.07146   -0.07091   -0.06887
  -0.06583   -0.06424   -0.06312   -0.05938   -0.05546   -0.05263   -0.04923   -0.04545
  -0.04484   -0.04071   -0.03856   -0.03461   -0.03127   -0.03024   -0.02658   -0.02446
  -0.02354   -0.02276   -0.01878   -0.01488   -0.01424   -0.01109   -0.01000   -0.00653
  -0.00294   -0.00198    0.00320    0.00475    0.00764    0.01097    0.01180    0.01207
   0.01798    0.02069    0.02309    0.03049    0.04626    0.08649    0.23314    0.27794
 prteigrs : prtvol=0 or 1, do not print more k-points.
 

--- !EnergyTerms
iteration_state     : {dtset: 1, }
comment             : Components of total free energy in Hartree
kinetic             :  2.24045743660763E+02
hartree             :  1.84593193297013E+02
xc                  : -9.29102287467692E+01
Ewald energy        : -5.05763047521107E+02
psp_core            :  3.67082924459475E+01
local_psp           : -5.78654949022466E+02
spherical_terms     :  4.30757819370605E+01
total_energy        : -6.88905213949558E+02
total_energy_eV     : -1.87460642199368E+04
...


--- !EnergyTermsDC
iteration_state     : {dtset: 1, }
comment             : '"Double-counting" decomposition of free energy'
band_energy         : -8.05615843461880E+01
Ewald energy        : -5.05763047521107E+02
psp_core            :  3.67082924459475E+01
xc_dc               : -1.56238810358665E+02
spherical_terms     :  6.98812189470380E+00
total_energy_dc     : -6.98867027885308E+02
total_energy_dc_eV  : -1.90171389628845E+04
...

 
 Cartesian components of stress tensor (hartree/bohr^3)
  sigma(1 1)= -2.97346687E-03  sigma(3 2)=  1.69511879E-04
  sigma(2 2)= -3.13008573E-03  sigma(3 1)=  1.89146409E-05
  sigma(3 3)= -3.20278810E-03  sigma(2 1)=  3.75406791E-06
 
-Cartesian components of stress tensor (GPa)         [Pressure=  9.1267E+01 GPa]
- sigma(1 1)= -8.74824008E+01  sigma(3 2)=  4.98721084E+00
- sigma(2 2)= -9.20902860E+01  sigma(3 1)=  5.56487853E-01
- sigma(3 3)= -9.42292633E+01  sigma(2 1)=  1.10448473E-01
 
== END DATASET(S) ==============================================================
================================================================================
  
 -outvars: echo values of variables after computation  --------
-          iomode           1
            acell      1.0000000000E+00  1.0000000000E+00  1.0000000000E+00 Bohr
              amu      1.38905500E+02  9.59400000E+01  1.59994000E+01
        autoparal           1
           bandpp          26
     densfor_pred           6
           diemac      4.00000000E+00
             ecut      3.00000000E+01 Hartree
           ecutsm      5.00000000E-01 Hartree
           etotal     -6.8890521395E+02
            fcart     -1.3019373309E-03 -4.6151862554E-02  5.4355424635E-02
                      -1.6532994879E-02  6.2346396595E-02 -6.1649230488E-02
                       1.2149565170E-02  6.7482055004E-02  6.9856329121E-02
                       3.7583551329E-02 -5.3238918851E-02 -7.9838942340E-02
                      -7.6450443672E-02  6.1887865054E-02  2.5813696285E-02
                      -1.2363491172E-01 -4.5523863628E-02 -2.4318414086E-03
                       3.2088701876E-02 -1.2129541555E-01  1.1002185582E-01
                       3.1519510771E-02  1.4113225070E-01 -1.3014361710E-01
                      -4.9433920246E-03 -1.5174656147E-02 -1.2479047457E-02
                      -5.0834420400E-03  1.0983040152E-02  1.1205061325E-02
                       2.3737848351E-02 -4.8294074927E-02  5.2706855409E-02
                       3.8220816080E-02  3.8853996563E-02 -4.0324293985E-02
                       2.7452194234E-02  1.4710838817E-02  2.1021194921E-02
                       1.7579608325E-02 -2.2422332928E-02  2.2161496456E-03
                       1.4720469301E-03 -2.6013769318E-02  3.0019408090E-02
                      -2.4335019376E-02  1.0988239112E-02 -2.9572841119E-02
                      -1.1117510131E-02  3.1722847548E-02 -4.1681152169E-03
                       3.0885515281E-02 -5.9052114050E-03 -4.5200422215E-03
                      -1.8450812005E-02 -4.2878768847E-02  7.7428792904E-03
                       2.9301303276E-02 -1.0633308677E-04  8.4889161258E-03
                      -9.4356227961E-03 -3.2280270438E-02  1.2522909220E-02
                      -2.4990057814E-03 -3.7353028235E-03 -1.7417400235E-02
                       4.6575964597E-04 -2.8016386505E-03  4.2246658153E-04
                      -9.9444357575E-03  2.9927383315E-02 -1.2522450657E-02
                       1.8426739083E-02 -7.1470045050E-03 -4.2987206902E-02
                       2.8463671581E-03  2.9345107961E-03  3.1661882667E-02
-          fftalg         401
             iscf           7
              ixc     -116133
              kpt      2.50000000E-01  2.50000000E-01  2.50000000E-01
                      -2.50000000E-01  2.50000000E-01  2.50000000E-01
                       2.50000000E-01 -2.50000000E-01  2.50000000E-01
                      -2.50000000E-01 -2.50000000E-01  2.50000000E-01
         kptrlatt        2    0    0      0    2    0      0    0    2
          kptrlen      2.66256913E+01
P           mkmem           1
            natom          26
            nband         104
            ngfft          72      75      75
          ngfftdg          72      75      75
             nkpt           4
-           npfft           5
-           npkpt           4
            nstep           1
             nsym           1
           ntypat           3
              occ      2.000000  2.000000  2.000000  2.000000  2.000000  2.000000
                       2.000000  2.000000  2.000000  2.000000  2.000000  2.000000
                       2.000000  2.000000  2.000000  2.000000  2.000000  2.000000
                       2.000000  2.000000  2.000000  2.000000  2.000000  2.000000
                       2.000000  2.000000  2.000000  2.000000  2.000000  2.000000
                       2.000000  2.000000  2.000000  2.000000  2.000000  2.000000
                       2.000000  2.000000  2.000000  2.000000  2.000000  2.000000
                       2.000000  2.000000  2.000000  2.000000  2.000000  2.000000
                       2.000000  2.000000  2.000000  2.000000  2.000000  2.000000
                       2.000000  2.000000  2.000000  2.000000  2.000000  2.000000
                       2.000000  2.000000  2.000000  2.000000  2.000000  2.000000
                       2.000000  2.000000  2.000000  2.000000  2.000000  2.000000
                       2.000000  2.000000  2.000000  2.000000  2.000000  2.000000
                       2.000000  2.000000  2.000000  2.000000  2.000000  2.000000
                       2.000000  2.000000  2.000000  2.000000  2.000000  2.000000
                       2.000000  2.000000  2.000000  2.000000  2.000000  2.000000
                       2.000000  2.000000  2.000000  2.000000  2.000000  2.000000
                       2.000000  2.000000
        paral_kgb           1
        pawecutdg      3.00000000E+01 Hartree
         pawmixdg           1
         pawxcdev           0
           prtcif           1
           prteig           0
            rprim      1.3312845533E+01 -3.7277110617E-05 -1.7213280111E-03
                      -1.5878513422E-04  1.3574566677E+01 -6.9086840866E-01
                      -1.6506412678E-03 -7.1552718400E-01  1.3571411610E+01
           shiftk      5.00000000E-01  5.00000000E-01  5.00000000E-01
          spgroup           1
           strten     -2.9734668677E-03 -3.1300857265E-03 -3.2027881012E-03
                       1.6951187944E-04  1.8914640858E-05  3.7540679118E-06
           tolvrs      1.00000000E-20
            typat      1  1  1  1  2  2  2  2  3  3  3  3  3  3  3  3  3  3  3  3
                       3  3  3  3  3  3
           useylm           1
         wfoptalg         114
              wtk        0.25000    0.25000    0.25000    0.25000
           xangst      6.1710477698E+00  5.6599463832E+00  6.1240411656E+00
                       2.6479127189E+00  4.7376756262E+00  5.0970766818E-01
                       9.1759268419E-01  2.4143193619E+00  4.7577847123E+00
                       4.4401784549E+00  8.0303870851E-01  2.2383203423E+00
                       1.1880669892E+00  1.3988022301E+00  1.3795227888E+00
                       4.7105518344E+00  1.8184423775E+00  5.6186724894E+00
                       5.9064080017E+00  4.3330388672E+00  2.0042696056E+00
                       2.3852721922E+00  6.0619120376E+00  4.6272939221E+00
                       2.2270271322E+00  1.9058891364E+00  2.7825859849E+00
                       5.7488938061E+00  1.3145366698E+00  4.2148365741E+00
                       4.7965327727E+00  5.7160169098E+00  1.1127459085E+00
                       1.2730024075E+00  4.6806188044E+00  5.5243670405E+00
                       6.7378401036E+00  4.4250547501E-01  1.3907821353E+00
                       3.2162861235E+00  2.7745939760E+00  5.5992351978E+00
                       1.8418316168E-01  4.9678989148E+00  9.0443355040E-01
                       3.7053047759E+00  5.4304569061E+00  5.7330378842E+00
                       2.3426937803E+00  7.2531334539E+00  5.9872779295E-01
                       9.3153225345E-01 -2.1455952593E-02  5.3767451141E+00
                       5.8654224242E+00  3.1436271749E+00  6.0429734034E+00
                       4.4550686123E+00  3.2310861875E+00  1.6161170353E+00
                       1.3325937038E+00  2.1880191699E+00  7.2451379093E+00
                       5.8934203900E+00  5.0323729305E+00  3.6118969393E+00
                       2.3719315793E+00  5.3491355017E+00  3.0252566308E+00
                       4.8496509588E+00  1.0229919336E+00 -2.5155911029E-01
                       6.9829873003E+00  2.8435993839E+00  2.4004088713E+00
                       3.4594006441E+00  7.5504462764E+00  4.2267797535E+00
            xcart      1.1661590238E+01  1.0695748591E+01  1.1572760629E+01
                       5.0038298625E+00  8.9529094399E+00  9.6320790069E-01
                       1.7339988747E+00  4.5624023914E+00  8.9909101055E+00
                       8.3907212610E+00  1.5175232332E+00  4.2298124446E+00
                       2.2451212370E+00  2.6433531290E+00  2.6069202648E+00
                       8.9016529017E+00  3.4363580820E+00  1.0617752235E+01
                       1.1161493552E+01  8.1882567821E+00  3.7875206510E+00
                       4.5075111956E+00  1.1455353593E+01  8.7443182492E+00
                       4.2084713704E+00  3.6016085074E+00  5.2583254526E+00
                       1.0863834861E+01  2.4841142976E+00  7.9648868200E+00
                       9.0641333279E+00  1.0801706531E+01  2.1027850226E+00
                       2.4056259167E+00  8.8450876727E+00  1.0439540764E+01
                       1.2732672523E+01  8.3621416008E-01  2.6281973463E+00
                       6.0778999384E+00  5.2432227446E+00  1.0581021077E+01
                       3.4805573386E-01  9.3879684048E+00  1.7091317156E+00
                       7.0020112653E+00  1.0262076329E+01  1.0833871511E+01
                       4.4270496580E+00  1.3706435833E+01  1.1314315568E+00
                       1.7603408430E+00 -4.0545874321E-02  1.0160575752E+01
                       1.1084042035E+01  5.9405944244E+00  1.1419564761E+01
                       8.4188595804E+00  6.1058680062E+00  3.0540185954E+00
                       2.5182371466E+00  4.1347570046E+00  1.3691326444E+01
                       1.1136950523E+01  9.5098066372E+00  6.8254960354E+00
                       4.4823010909E+00  1.0108401146E+01  5.7169065138E+00
                       9.1645121523E+00  1.9331745906E+00 -4.7537782468E-01
                       1.3195933587E+01  5.3736240672E+00  4.5361153737E+00
                       6.5373198012E+00  1.4268275644E+01  7.9874561581E+00
             xred      8.7608623747E-01  8.3512293450E-01  8.9535481371E-01
                       3.7588572381E-01  6.6506474327E-01  1.0487686801E-01
                       1.3033898428E-01  3.7201914032E-01  6.8144353725E-01
                       6.3031356052E-01  1.2857102965E-01  3.1829578291E-01
                       1.6867079336E-01  2.0540630397E-01  2.0256694056E-01
                       6.6875380571E-01  2.9518413703E-01  7.9747318008E-01
                       8.3844620645E-01  6.1958679998E-01  3.1072794486E-01
                       3.3867954989E-01  8.8021124043E-01  6.8917011991E-01
                       3.1617437060E-01  2.8651526460E-01  4.0208153684E-01
                       8.1611822449E-01  2.1451632693E-01  5.9791084477E-01
                       6.8089011669E-01  8.0606771196E-01  1.9606241795E-01
                       1.8080764063E-01  6.9400336040E-01  8.0458225748E-01
                       9.5644539970E-01  7.2011608926E-02  1.9744403347E-01
                       4.5664850511E-01  4.2850382991E-01  8.0152656119E-01
                       2.6172737286E-02  7.0010216753E-01  1.6157900894E-01
                       5.2607260736E-01  8.0020871823E-01  8.3908854178E-01
                       3.3256858804E-01  1.0168404999E+00  1.3517436853E-01
                       1.3232224029E-01  3.6575797457E-02  7.5055365481E-01
                       8.3269564350E-01  4.8328464617E-01  8.6615044441E-01
                       6.3242253824E-01  4.6291185292E-01  2.4867850701E-01
                       1.8929007417E-01  3.5873687322E-01  1.0271217650E+00
                       8.3663239765E-01  7.2903469727E-01  5.4015038420E-01
                       3.3675619405E-01  7.6892807492E-01  4.6043215523E-01
                       6.8839442927E-01  1.4094986833E-01 -2.7765354972E-02
                       9.9126712945E-01  4.1459966723E-01  3.5547190082E-01
                       4.9114630194E-01  1.0850427049E+00  6.4384778532E-01
            znucl       57.00000   42.00000    8.00000
 
================================================================================


- Timing analysis has been suppressed with timopt=0



================================================================================

 Suggested references for the acknowledgment of ABINIT usage.

 The users of ABINIT have little formal obligations with respect to the ABINIT group
 (those specified in the GNU General Public License, http://www.gnu.org/copyleft/gpl.txt).
 However, it is common practice in the scientific literature,
 to acknowledge the efforts of people that have made the research possible.
 In this spirit, please find below suggested citations of work written by ABINIT developers,
 corresponding to implementations inside of ABINIT that you have used in the present run.
 Note also that it will be of great value to readers of publications presenting these results,
 to read papers enabling them to understand the theoretical formalism and details
 of the ABINIT implementation.
 For information on why they are suggested, see also https://docs.abinit.org/theory/acknowledgments.
-
- [1] Implementation of the Projector Augmented-Wave Method in the ABINIT code.
- M. Torrent, F. Jollet, F. Bottin, G. Zerah, and X. Gonze Comput. Mat. Science 42, 337, (2008).
- Comment: PAW calculations. Strong suggestion to cite this paper.
- DOI and bibtex: see https://docs.abinit.org/theory/bibliography/#torrent2008
-
- [2] Libxc: A library of exchange and correlation functionals for density functional theory.
- M.A.L. Marques, M.J.T. Oliveira, T. Burnus, Computer Physics Communications 183, 2227 (2012).
- Comment: to be cited when LibXC is used (negative value of ixc)
- Strong suggestion to cite this paper.
- DOI and bibtex: see https://docs.abinit.org/theory/bibliography/#marques2012
-
- [3] Large scale ab initio calculations based on three levels of parallelization
- F. Bottin, S. Leroux, A. Knyazev, G. Zerah, Comput. Mat. Science 42, 329, (2008).
- Comment: in case LOBPCG algorithm is used (wfoptalg=4/14/114).
- Strong suggestion to cite this paper in your publications.
- This paper is also available at http://www.arxiv.org/abs/0707.3405
- DOI and bibtex: see https://docs.abinit.org/theory/bibliography/#bottin2008
-
- [4] The Abinit project: Impact, environment and recent developments.
- Computer Phys. Comm. 248, 107042 (2020).
- X.Gonze, B. Amadon, G. Antonius, F.Arnardi, L.Baguet, J.-M.Beuken,
- J.Bieder, F.Bottin, J.Bouchet, E.Bousquet, N.Brouwer, F.Bruneval,
- G.Brunin, T.Cavignac, J.-B. Charraud, Wei Chen, M.Cote, S.Cottenier,
- J.Denier, G.Geneste, Ph.Ghosez, M.Giantomassi, Y.Gillet, O.Gingras,
- D.R.Hamann, G.Hautier, Xu He, N.Helbig, N.Holzwarth, Y.Jia, F.Jollet,
- W.Lafargue-Dit-Hauret, K.Lejaeghere, M.A.L.Marques, A.Martin, C.Martins,
- H.P.C. Miranda, F.Naccarato, K. Persson, G.Petretto, V.Planes, Y.Pouillon,
- S.Prokhorenko, F.Ricci, G.-M.Rignanese, A.H.Romero, M.M.Schmitt, M.Torrent,
- M.J.van Setten, B.Van Troeye, M.J.Verstraete, G.Zerah and J.W.Zwanzig
- Comment: the fifth generic paper describing the ABINIT project.
- Note that a version of this paper, that is not formatted for Computer Phys. Comm. 
- is available at https://www.abinit.org/sites/default/files/ABINIT20.pdf .
- The licence allows the authors to put it on the Web.
- DOI and bibtex: see https://docs.abinit.org/theory/bibliography/#gonze2020
-
- [5] ABINIT: Overview, and focus on selected capabilities
- J. Chem. Phys. 152, 124102 (2020).
- A. Romero, D.C. Allan, B. Amadon, G. Antonius, T. Applencourt, L.Baguet,
- J.Bieder, F.Bottin, J.Bouchet, E.Bousquet, F.Bruneval,
- G.Brunin, D.Caliste, M.Cote,
- J.Denier, C. Dreyer, Ph.Ghosez, M.Giantomassi, Y.Gillet, O.Gingras,
- D.R.Hamann, G.Hautier, F.Jollet, G. Jomard,
- A.Martin, 
- H.P.C. Miranda, F.Naccarato, G.Petretto, N.A. Pike, V.Planes,
- S.Prokhorenko, T. Rangel, F.Ricci, G.-M.Rignanese, M.Royo, M.Stengel, M.Torrent,
- M.J.van Setten, B.Van Troeye, M.J.Verstraete, J.Wiktor, J.W.Zwanziger, and X.Gonze.
- Comment: a global overview of ABINIT, with focus on selected capabilities .
- Note that a version of this paper, that is not formatted for J. Chem. Phys 
- is available at https://www.abinit.org/sites/default/files/ABINIT20_JPC.pdf .
- The licence allows the authors to put it on the Web.
- DOI and bibtex: see https://docs.abinit.org/theory/bibliography/#romero2020
-
- [6] Recent developments in the ABINIT software package.
- Computer Phys. Comm. 205, 106 (2016).
- X.Gonze, F.Jollet, F.Abreu Araujo, D.Adams, B.Amadon, T.Applencourt,
- C.Audouze, J.-M.Beuken, J.Bieder, A.Bokhanchuk, E.Bousquet, F.Bruneval
- D.Caliste, M.Cote, F.Dahm, F.Da Pieve, M.Delaveau, M.Di Gennaro,
- B.Dorado, C.Espejo, G.Geneste, L.Genovese, A.Gerossier, M.Giantomassi,
- Y.Gillet, D.R.Hamann, L.He, G.Jomard, J.Laflamme Janssen, S.Le Roux,
- A.Levitt, A.Lherbier, F.Liu, I.Lukacevic, A.Martin, C.Martins,
- M.J.T.Oliveira, S.Ponce, Y.Pouillon, T.Rangel, G.-M.Rignanese,
- A.H.Romero, B.Rousseau, O.Rubel, A.A.Shukri, M.Stankovski, M.Torrent,
- M.J.Van Setten, B.Van Troeye, M.J.Verstraete, D.Waroquier, J.Wiktor,
- B.Xu, A.Zhou, J.W.Zwanziger.
- Comment: the fourth generic paper describing the ABINIT project.
- Note that a version of this paper, that is not formatted for Computer Phys. Comm. 
- is available at https://www.abinit.org/sites/default/files/ABINIT16.pdf .
- The licence allows the authors to put it on the Web.
- DOI and bibtex: see https://docs.abinit.org/theory/bibliography/#gonze2016
-
- Proc.   0 individual time (sec): cpu=         16.2  wall=         18.8
 
================================================================================
 
 Calculation completed.
.Delivered   1 WARNINGs and   0 COMMENTs to log file.
+Overall time at end (sec) : cpu=        358.6  wall=        368.0
