
.Version 9.3.2 of ABINIT 
.(MPI version, prepared for a x86_64_linux_intel19.1 computer) 

.Copyright (C) 1998-2020 ABINIT group . 
 ABINIT comes with ABSOLUTELY NO WARRANTY.
 It is free software, and you are welcome to redistribute it
 under certain conditions (GNU General Public License,
 see ~abinit/COPYING or http://www.gnu.org/copyleft/gpl.txt).

 ABINIT is a project of the Universite Catholique de Louvain,
 Corning Inc. and other collaborators, see ~abinit/doc/developers/contributors.txt .
 Please read https://docs.abinit.org/theory/acknowledgments for suggested
 acknowledgments of the ABINIT effort.
 For more information, see https://www.abinit.org .

.Starting date : Sun 18 Dec 2022.
- ( at 15h06 )
  
- The starting date is more than 2 years after the initial release
- of this version of ABINIT, namely Nov 2020.
- Note that the use beyond 3 years after the release will not be supported.
- Action: please, switch to a more recent version of ABINIT.
 
- input  file    -> abi.in
- output file    -> abi.out
- root for input  files -> DFPT/abi-i
- root for output files -> abi-o
 
- inpspheads : Reading pseudopotential header in XML form from 
-   ~/ABINIT_PAW_PBE/paw_pbe_standard/La.xml
- inpspheads : Reading pseudopotential header in XML form from 
-   ~/ABINIT_PAW_PBE/paw_pbe_standard/Mo.xml
- inpspheads : Reading pseudopotential header in XML form from 
-   ~/ABINIT_PAW_PBE/paw_pbe_standard/O.xml
 
 DATASET    1 : space group P1 (#  1); Bravais aP (primitive triclinic)
================================================================================
 Values of the parameters that define the memory need for DATASET  1.
     intxc =       0    ionmov =       0      iscf =       7    lmnmax =      32
     lnmax =       8     mgfft =     144  mpssoang =       4    mqgrid =    6705
     natom =     104  nloc_mem =       2    nspden =       1   nspinor =       1
    nsppol =       1      nsym =       1    n1xccc =       1    ntypat =       3
    occopt =       1   xclevel =       2
-    mband =         420        mffmem =           1         mkmem =           1
       mpw =        1298          nfft =      248832          nkpt =           1
Pmy_natom=        11
 PAW method is used; the additional fine FFT grid is defined by:
   mgfftf=       144    nfftf =    248832
================================================================================
P This job should need less than                     172.612 Mbytes of memory.
  Rough estimation (10% accuracy) of disk space for files :
_ WF disk file :     49.913 Mbytes ; DEN or POT disk file :      1.900 Mbytes.
================================================================================
 
 
 DATASET    2 : space group P1 (#  1); Bravais aP (primitive triclinic)
================================================================================
 Values of the parameters that define the memory need for DATASET  2.
     intxc =       0    ionmov =       0      iscf =       7    lmnmax =      32
     lnmax =       8     mgfft =     144  mpssoang =       4    mqgrid =    6705
     natom =     104  nloc_mem =       2    nspden =       1   nspinor =       1
    nsppol =       1      nsym =       1    n1xccc =       1    ntypat =       3
    occopt =       1   xclevel =       2
-    mband =         420        mffmem =           1         mkmem =           1
       mpw =        1298          nfft =      248832          nkpt =           1
Pmy_natom=        11
 PAW method is used; the additional fine FFT grid is defined by:
   mgfftf=       144    nfftf =    248832
================================================================================
P This job should need less than                     172.612 Mbytes of memory.
  Rough estimation (10% accuracy) of disk space for files :
_ WF disk file :     49.913 Mbytes ; DEN or POT disk file :      1.900 Mbytes.
================================================================================
 
--------------------------------------------------------------------------------
------------- Echo of variables that govern the present computation ------------
--------------------------------------------------------------------------------
-
- outvars: echo of selected default values                                      
-   iomode0 =  0 , fftalg0 =512 , wfoptalg0 = 10
-
- outvars: echo of global parameters not present in the input file              
-  max_nthreads =    1
-
 -outvars: echo values of preprocessed input variables --------
-          iomode           1
            acell      1.0000000000E+00  1.0000000000E+00  1.0000000000E+00 Bohr
              amu      1.38905500E+02  9.59400000E+01  1.59994000E+01
        autoparal           1
           bandpp          14
     densfor_pred           6
           diemac      4.00000000E+00
             ecut      3.00000000E+01 Hartree
           ecutsm      5.00000000E-01 Hartree
-          fftalg         401
           getwfk1          0
           getwfk2         -1
             iscf           7
              ixc     -116133
           jdtset        1    2
              kpt      5.00000000E-01  5.00000000E-01  2.50000000E-01
         kptrlatt        1    0    0      0    1    0      0    0    2
          kptrlen      2.69569869E+01
P           mkmem           1
            natom         104
            nband         420
           ndtset           2
            ngfft         144     144      72
          ngfftdg         144     144      72
             nkpt           1
-          npband          10
-           npfft           6
            nstep1        100
            nstep2        250
             nsym           1
           ntypat           3
              occ      2.000000  2.000000  2.000000  2.000000  2.000000  2.000000
                       2.000000  2.000000  2.000000  2.000000  2.000000  2.000000
                       2.000000  2.000000  2.000000  2.000000  2.000000  2.000000
                       2.000000  2.000000  2.000000  2.000000  2.000000  2.000000
                       2.000000  2.000000  2.000000  2.000000  2.000000  2.000000
                       2.000000  2.000000  2.000000  2.000000  2.000000  2.000000
                       2.000000  2.000000  2.000000  2.000000  2.000000  2.000000
                       2.000000  2.000000  2.000000  2.000000  2.000000  2.000000
                       2.000000  2.000000  2.000000  2.000000  2.000000  2.000000
                       2.000000  2.000000  2.000000  2.000000  2.000000  2.000000
                       2.000000  2.000000  2.000000  2.000000  2.000000  2.000000
                       2.000000  2.000000  2.000000  2.000000  2.000000  2.000000
                       2.000000  2.000000  2.000000  2.000000  2.000000  2.000000
                       2.000000  2.000000  2.000000  2.000000  2.000000  2.000000
                       2.000000  2.000000  2.000000  2.000000  2.000000  2.000000
                       2.000000  2.000000  2.000000  2.000000  2.000000  2.000000
                       2.000000  2.000000  2.000000  2.000000  2.000000  2.000000
                       2.000000  2.000000  2.000000  2.000000  2.000000  2.000000
                       2.000000  2.000000  2.000000  2.000000  2.000000  2.000000
                       2.000000  2.000000  2.000000  2.000000  2.000000  2.000000
                       2.000000  2.000000  2.000000  2.000000  2.000000  2.000000
                       2.000000  2.000000  2.000000  2.000000  2.000000  2.000000
                       2.000000  2.000000  2.000000  2.000000  2.000000  2.000000
                       2.000000  2.000000  2.000000  2.000000  2.000000  2.000000
                       2.000000  2.000000  2.000000  2.000000  2.000000  2.000000
                       2.000000  2.000000  2.000000  2.000000  2.000000  2.000000
                       2.000000  2.000000  2.000000  2.000000  2.000000  2.000000
                       2.000000  2.000000  2.000000  2.000000  2.000000  2.000000
                       2.000000  2.000000  2.000000  2.000000  2.000000  2.000000
                       2.000000  2.000000  2.000000  2.000000  2.000000  2.000000
                       2.000000  2.000000  2.000000  2.000000  2.000000  2.000000
                       2.000000  2.000000  2.000000  2.000000  2.000000  2.000000
                       2.000000  2.000000  2.000000  2.000000  2.000000  2.000000
                       2.000000  2.000000  2.000000  2.000000  2.000000  2.000000
                       2.000000  2.000000  2.000000  2.000000  2.000000  2.000000
                       2.000000  2.000000  2.000000  2.000000  2.000000  2.000000
                       2.000000  2.000000  2.000000  2.000000  2.000000  2.000000
                       2.000000  2.000000  2.000000  2.000000  2.000000  2.000000
                       2.000000  2.000000  2.000000  2.000000  2.000000  2.000000
                       2.000000  2.000000  2.000000  2.000000  2.000000  2.000000
                       2.000000  2.000000  2.000000  2.000000  2.000000  2.000000
                       2.000000  2.000000  2.000000  2.000000  2.000000  2.000000
                       2.000000  2.000000  2.000000  2.000000  2.000000  2.000000
                       2.000000  2.000000  2.000000  2.000000  2.000000  2.000000
                       2.000000  2.000000  2.000000  2.000000  2.000000  2.000000
                       2.000000  2.000000  2.000000  2.000000  2.000000  2.000000
                       2.000000  2.000000  2.000000  2.000000  2.000000  2.000000
                       2.000000  2.000000  2.000000  2.000000  2.000000  2.000000
                       2.000000  2.000000  2.000000  2.000000  2.000000  2.000000
                       2.000000  2.000000  2.000000  2.000000  2.000000  2.000000
                       2.000000  2.000000  2.000000  2.000000  2.000000  2.000000
                       2.000000  2.000000  2.000000  2.000000  2.000000  2.000000
                       2.000000  2.000000  2.000000  2.000000  2.000000  2.000000
                       2.000000  2.000000  2.000000  2.000000  2.000000  2.000000
                       2.000000  2.000000  2.000000  2.000000  2.000000  2.000000
                       2.000000  2.000000  2.000000  2.000000  2.000000  2.000000
                       2.000000  2.000000  2.000000  2.000000  2.000000  2.000000
                       2.000000  2.000000  2.000000  2.000000  2.000000  2.000000
                       2.000000  2.000000  2.000000  2.000000  2.000000  2.000000
                       2.000000  2.000000  2.000000  2.000000  2.000000  2.000000
                       2.000000  2.000000  2.000000  2.000000  2.000000  2.000000
                       2.000000  2.000000  2.000000  2.000000  2.000000  2.000000
                       2.000000  2.000000  2.000000  2.000000  2.000000  2.000000
                       2.000000  2.000000  2.000000  2.000000  2.000000  2.000000
                       2.000000  2.000000  2.000000  2.000000  2.000000  2.000000
                       2.000000  2.000000  2.000000  2.000000  2.000000  2.000000
                       2.000000  2.000000  2.000000  2.000000  2.000000  2.000000
                       2.000000  2.000000  2.000000  2.000000  2.000000  2.000000
                       2.000000  2.000000  2.000000  2.000000  2.000000  2.000000
                       2.000000  2.000000  0.000000  0.000000  0.000000  0.000000
        paral_kgb           1
        pawecutdg      3.00000000E+01 Hartree
         pawmixdg           1
         pawxcdev           0
           prtcif           1
           prteig           0
            rprim      2.6950086568E+01 -3.6140907040E-01 -4.9128292943E-01
                      -3.5331384706E-01  2.7202646793E+01  2.0168438572E-01
                      -2.5330023004E-01  9.1926763762E-02  1.3495270910E+01
           shiftk      5.00000000E-01  5.00000000E-01  5.00000000E-01
          spgroup           1
           tolvrs1     1.00000000E-20
           tolvrs2     0.00000000E+00
           tolwfr1     0.00000000E+00
           tolwfr2     1.00000000E-20
            typat      1  1  1  1  1  1  1  1  1  1  1  1  1  1  1  1  2  2  2  2
                       2  2  2  2  2  2  2  2  2  2  2  2  3  3  3  3  3  3  3  3
                       3  3  3  3  3  3  3  3  3  3  3  3  3  3  3  3  3  3  3  3
                       3  3  3  3  3  3  3  3  3  3  3  3  3  3  3  3  3  3  3  3
                       3  3  3  3  3  3  3  3  3  3  3  3  3  3  3  3  3  3  3  3
                       3  3  3  3
           useylm           1
         wfoptalg         114
           xangst      6.0002631123E+00  6.3380250524E+00  5.8394206051E+00
                       2.0363722005E+00  4.3356107623E+00  8.5884363864E-01
                       1.2992073480E+00  2.4121559808E+00  4.2432656895E+00
                       4.5086905915E+00  8.9256362949E-01  2.4028716386E+00
                       1.2780643981E+01  6.2603084211E+00  6.0601424993E+00
                       9.3434675151E+00  4.8624765919E+00  1.0005453191E+00
                       7.9227522578E+00  2.8187072632E+00  4.7334661433E+00
                       1.1729350742E+01  1.0042941309E+00  2.4186512984E+00
                       5.8327763193E+00  1.3404406711E+01  5.8873012921E+00
                       2.3507636354E+00  1.1933019891E+01  1.0351687294E+00
                       1.0138241313E+00  9.6513241894E+00  4.0772606536E+00
                       4.3701459957E+00  8.2536428087E+00  2.4655362696E+00
                       1.2582870388E+01  1.3429416567E+01  5.9829045313E+00
                       9.0582052122E+00  1.1618022774E+01  1.1322916782E+00
                       7.6953637948E+00  9.7595003589E+00  4.5128565348E+00
                       1.1508790591E+01  8.1530127235E+00  2.3589181941E+00
                       1.2160273953E+00  8.8635192357E-01  1.1019438506E+00
                       4.5091815468E+00  2.5142186267E+00  5.5720699377E+00
                       5.6168663064E+00  4.6334484847E+00  2.2097133826E+00
                       2.0928268041E+00  5.7897101939E+00  4.6816053997E+00
                       8.4981804591E+00  1.3174933896E+00  1.3371006872E+00
                       1.2044591525E+01  2.4727539114E+00  5.7943489123E+00
                       1.2948227837E+01  4.6304793268E+00  2.1011530610E+00
                       9.4632932678E+00  6.0411080044E+00  4.8487022840E+00
                       1.0655203204E+00  7.7441425154E+00  1.3019477264E+00
                       4.4134887635E+00  9.5300106235E+00  5.8514449463E+00
                       5.7198107842E+00  1.2135783683E+01  2.0835679011E+00
                       1.7042992579E+00  1.2878656820E+01  4.9354970720E+00
                       8.1080938632E+00  8.2408582209E+00  1.3195979209E+00
                       1.1805755980E+01  9.6941278936E+00  5.7842115775E+00
                       1.2693546864E+01  1.1741644129E+01  2.2069077281E+00
                       9.3190050205E+00  1.3306257184E+01  4.9147176580E+00
                       8.6767058091E-01  5.2241102692E+00  5.8708940416E+00
                       2.3606767841E+00  2.1950272118E+00  1.9471781491E+00
                       4.8833611838E+00  5.0208251993E+00  6.5371925500E-01
                       5.8926475805E+00  1.3757567567E+00  4.7809304338E+00
                       8.1434269521E+00  4.9708078881E+00  5.8451950808E+00
                       9.3291483827E+00  2.0831729573E+00  2.7139923952E+00
                       1.1983495174E+01  5.9735604080E+00  1.2799603759E+00
                       1.3067829338E+01  2.0044966405E+00  4.3812891871E+00
                       7.7907327620E-01  1.1638415028E+01  5.7962886026E+00
                       2.0674037258E+00  9.2180468585E+00  1.9029640572E+00
                       4.6540401954E+00  1.3204833359E+01  9.4972342885E-01
                       5.6504524245E+00  8.4506289407E+00  4.7355108262E+00
                       7.9686371870E+00  1.2121067525E+01  5.3948836723E+00
                       9.1781168602E+00  9.3624973771E+00  2.4410195591E+00
                       1.2250850671E+01  1.3247405356E+01  1.3739725120E+00
                       1.2864173276E+01  9.1589648451E+00  4.4275669204E+00
                       8.9996179838E-01  2.0597853828E+00  6.8322671680E+00
                       1.4157583116E+01  8.6129918861E-01  2.0089474395E+00
                       2.3541290233E+00  1.4139953673E+01  1.9484355318E+00
                       5.4636208591E+00  6.0582059080E+00  3.2668947145E+00
                       4.6795191447E+00  3.3137953112E+00  2.8749907077E+00
                       7.2756008376E+00  3.9612141255E+00  2.1805820214E+00
                       4.7183150067E+00  1.8178371457E+00  5.5010186539E-02
                       5.7380458681E+00  3.8676411534E+00  5.3733957990E+00
                       3.3821454867E+00  1.4042017657E+00  4.5043017242E+00
                       3.5851394841E+00  6.3386673341E+00  5.4077447069E+00
                       2.2951561068E+00  4.6415764293E+00  3.3452986865E+00
                       1.4122036941E+00  7.2336775158E+00  3.9265142943E+00
                       1.4857527203E-01  5.9785004102E+00  1.2441765325E+00
                       1.2981090924E+01  5.1885419100E+00  3.7578052113E+00
                       1.1615751112E+01  3.4089662730E+00  1.9564199506E+00
                       6.8822050400E+00  7.9614377637E-01  1.7504254039E+00
                       8.3734281428E+00  2.5383707213E+00  7.1356157728E+00
                       9.3868924343E+00  1.4366554028E+01  1.1087078160E+00
                       1.0529612274E+01  5.5298393518E+00  6.2793555637E+00
                       9.3939067997E+00  4.9190915320E+00  3.4844819628E+00
                       8.2274013615E+00  7.3553359120E+00  4.8237647929E+00
                       1.2165129832E+01  1.1380789000E+00 -1.1380786478E-01
                       1.2733624708E+01  3.8943018924E+00  6.5793496353E+00
                       1.0428747872E+01  2.8464823858E+00  5.2792411854E+00
                       4.9494809873E+00  8.3153348806E+00  4.3389234651E-02
                       5.5361195076E+00  1.0919499642E+01  5.6741149492E+00
                       3.2823680822E+00  9.1936733953E+00  4.3898824806E+00
                       2.6153804838E+00  6.7330548323E+00  1.3828169144E+00
                       5.1487606413E-01  8.1600575567E+00  6.7646373256E+00
                       1.3932614728E+01  8.1689700123E+00  2.0915208289E+00
                       5.3178954886E+00  1.3179195666E+01  3.5150553770E+00
                       4.5975849175E+00  1.0753464591E+01  2.0171983786E+00
                       6.9988993654E+00  1.2539522339E+01  6.9145378474E-01
                       8.3610116613E-01 -1.0981812379E-01  4.5492025756E+00
                       3.1339686517E+00  1.3217577646E+01  5.9050810063E+00
                       2.1889434834E+00  1.1902368589E+01  3.5198406571E+00
                       9.6131068516E+00  7.1090534419E+00  1.5194676567E+00
                       6.7372027989E+00  8.6274959498E+00  2.4004193900E+00
                       7.9952762361E+00  9.4347494744E+00  7.0859184619E+00
                       1.1879523678E+01  8.3342224687E+00 -1.6291657370E-01
                       1.2482904345E+01  1.1088984215E+01  6.6153242528E+00
                       1.0196637919E+01  1.0032314828E+01  5.2014667342E+00
                       8.4178195821E+00  3.3082819923E-01  5.0177614567E+00
                       1.0301963745E+01  1.2702926615E+01  6.3501422147E+00
                       9.5575168832E+00  1.2657630888E+01  3.2631295823E+00
                       4.5858750007E-02  1.1284038307E+01  2.1309602002E+00
                       1.2674677275E+01  1.2088476326E+01  3.9219408968E+00
                       1.1414327990E+01  1.0559183100E+01  1.8777620071E+00
                       7.8631750522E-01 -6.5756519896E-01  1.6414822059E-01
                       3.0082692748E+00  3.6231646482E+00  5.7208216466E+00
                       1.4370293889E+01  3.5105961470E+00  2.0120035122E+00
                       1.0935039504E+01  7.0915655916E+00  4.4072405139E+00
                       3.0399678136E+00  1.0355366081E+01  6.6607738127E+00
                       7.2078484021E+00  1.1314999843E+01  2.7777746143E+00
                       7.3474420067E+00  6.6266081749E+00  7.4820175496E-01
                       1.0961771358E+01  1.4446922110E+01  4.5678076341E+00
            xcart      1.1338854007E+01  1.1977131572E+01  1.1034905718E+01
                       3.8481857635E+00  8.1931169596E+00  1.6229792680E+00
                       2.4551460776E+00  4.5583141934E+00  8.0186100622E+00
                       8.5201904359E+00  1.6867008159E+00  4.5407693295E+00
                       2.4151916926E+01  1.1830268423E+01  1.1452009650E+01
                       1.7656594735E+01  9.1887490862E+00  1.8907566366E+00
                       1.4971831986E+01  5.3265847763E+00  8.9449546702E+00
                       2.2165260619E+01  1.8978408642E+00  4.5705885648E+00
                       1.1022349838E+01  2.5330657657E+01  1.1125387104E+01
                       4.4422994740E+00  2.2550139532E+01  1.9561853999E+00
                       1.9158499550E+00  1.8238359538E+01  7.7049060076E+00
                       8.2583790926E+00  1.5597124507E+01  4.6591883202E+00
                       2.3778178999E+01  2.5377919435E+01  1.1306051043E+01
                       1.7117527107E+01  2.1954881248E+01  2.1397211744E+00
                       1.4542130065E+01  1.8442782872E+01  8.5280629278E+00
                       2.1748462337E+01  1.5406961205E+01  4.4577093568E+00
                       2.2979587472E+00  1.6749623929E+00  2.0823720914E+00
                       8.5211182069E+00  4.7511846427E+00  1.0529686175E+01
                       1.0614339044E+01  8.7559486869E+00  4.1757531253E+00
                       3.9548695032E+00  1.0940966655E+01  8.8469520677E+00
                       1.6059233696E+01  2.4897016883E+00  2.5267541109E+00
                       2.2760979365E+01  4.6728276866E+00  1.0949732563E+01
                       2.4468604518E+01  8.7503377916E+00  3.9706038486E+00
                       1.7883032591E+01  1.1416039667E+01  9.1627194167E+00
                       2.0135415946E+00  1.4634308488E+01  2.4603246422E+00
                       8.3402850536E+00  1.8009110122E+01  1.1057628430E+01
                       1.0808875914E+01  2.2933307569E+01  3.9373727124E+00
                       3.2206588459E+00  2.4337134349E+01  9.3267377958E+00
                       1.5322076861E+01  1.5572965137E+01  2.4936786761E+00
                       2.2309645594E+01  1.8319246816E+01  1.0930575776E+01
                       2.3987327229E+01  2.2188491754E+01  4.1704512067E+00
                       1.7610367320E+01  2.5145181931E+01  9.2874703941E+00
                       1.6396597715E+00  9.8721376968E+00  1.1094381894E+01
                       4.4610326102E+00  4.1480002845E+00  3.6796334338E+00
                       9.2282152454E+00  9.4879845879E+00  1.2353503597E+00
                       1.1135490125E+01  2.5998034957E+00  9.0346491802E+00
                       1.5388846723E+01  9.3934655676E+00  1.1045817896E+01
                       1.7629535496E+01  3.9366263768E+00  5.1287023537E+00
                       2.2645523993E+01  1.1288393209E+01  2.4187745715E+00
                       2.4694618600E+01  3.7879496848E+00  8.2794366726E+00
                       1.4722351295E+00  2.1993417024E+01  1.0953398046E+01
                       3.9068268478E+00  1.7419584043E+01  3.5960809088E+00
                       8.7948613808E+00  2.4953518678E+01  1.7947171825E+00
                       1.0677807609E+01  1.5969374349E+01  8.9488185608E+00
                       1.5058541936E+01  2.2905498060E+01  1.0194852659E+01
                       1.7344127281E+01  1.7692555963E+01  4.6128584518E+00
                       2.3150752663E+01  2.5033968094E+01  2.5964317618E+00
                       2.4309764417E+01  1.7307935218E+01  8.3668889145E+00
                       1.7006813290E+00  3.8924302661E+00  1.2911113814E+01
                       2.6753954793E+01  1.6276195849E+00  3.7963604760E+00
                       4.4486591355E+00  2.6720639974E+01  3.6820095426E+00
                       1.0324747118E+01  1.1448350023E+01  6.1735363153E+00
                       8.8430096170E+00  6.2621655986E+00  5.4329450722E+00
                       1.3748893035E+01  7.4856098509E+00  4.1207028307E+00
                       8.9163231713E+00  3.4352143595E+00  1.0395418708E-01
                       1.0843335229E+01  7.3087825602E+00  1.0154246464E+01
                       6.3913287114E+00  2.6535567726E+00  8.5118966786E+00
                       6.7749317732E+00  1.1978345309E+01  1.0219156493E+01
                       4.3372164741E+00  8.7713082762E+00  6.3216983503E+00
                       2.6686782257E+00  1.3669669439E+01  7.4200366730E+00
                       2.8076657425E-01  1.1297728461E+01  2.3511529073E+00
                       2.4530706753E+01  9.8049232388E+00  7.1012227100E+00
                       2.1950588430E+01  6.4420126523E+00  3.6970979075E+00
                       1.3005482716E+01  1.5044936997E+00  3.3078246294E+00
                       1.5823485983E+01  4.7968254870E+00  1.3484359600E+01
                       1.7738655940E+01  2.7148852586E+01  2.0951541337E+00
                       1.9898083483E+01  1.0449881934E+01  1.1866262306E+01
                       1.7751911169E+01  9.2957358180E+00  6.5847166247E+00
                       1.5547535359E+01  1.3899570489E+01  9.1155943881E+00
                       2.2988763753E+01  2.1506574386E+00 -2.1506569620E-01
                       2.4063063376E+01  7.3591640555E+00  1.2433168943E+01
                       1.9707477387E+01  5.3790721513E+00  9.9763200298E+00
                       9.3531635659E+00  1.5713705628E+01  8.1993770606E-02
                       1.0461749708E+01  2.0634863831E+01  1.0722523301E+01
                       6.2027767426E+00  1.7373524872E+01  8.2956756438E+00
                       4.9423528478E+00  1.2723629671E+01  2.6131452602E+00
                       9.7297475359E-01  1.5420274011E+01  1.2783311934E+01
                       2.6328826151E+01  1.5437116111E+01  3.9524015679E+00
                       1.0049366077E+01  2.4905070460E+01  6.6424920044E+00
                       8.6881763667E+00  2.0321103057E+01  3.8119524913E+00
                       1.3226003032E+01  2.3696263059E+01  1.3066582867E+00
                       1.5800022234E+00 -2.0752617839E-01  8.5967469909E+00
                       5.9223424607E+00  2.4977601892E+01  1.1158985894E+01
                       4.1365037040E+00  2.2492216966E+01  6.6515348734E+00
                       1.8166139236E+01  1.3434164069E+01  2.8713777390E+00
                       1.2731468192E+01  1.6303604558E+01  4.5361352512E+00
                       1.5108882443E+01  1.7829092639E+01  1.3390445293E+01
                       2.2449046340E+01  1.5749397996E+01 -3.0786770680E-01
                       2.3589270554E+01  2.0955143259E+01  1.2501151118E+01
                       1.9268853143E+01  1.8958327504E+01  9.8293476170E+00
                       1.5907373646E+01  6.2517469358E-01  9.4821949532E+00
                       1.9467890108E+01  2.4005052388E+01  1.2000029691E+01
                       1.8061089420E+01  2.3919455870E+01  6.1664212467E+00
                       8.6660478310E-02  2.1323742073E+01  4.0269311784E+00
                       2.3951668872E+01  2.2843909620E+01  7.4113942044E+00
                       2.1569953891E+01  1.9953964246E+01  3.5484559361E+00
                       1.4859247384E+00 -1.2426181405E+00  3.1019518212E-01
                       5.6848050634E+00  6.8467889195E+00  1.0810786167E+01
                       2.7155919899E+01  6.6340652809E+00  3.8021356166E+00
                       2.0664229915E+01  1.3401116822E+01  8.3284775731E+00
                       5.7447066205E+00  1.9568805899E+01  1.2587038339E+01
                       1.3620859487E+01  2.1382250898E+01  5.2492332799E+00
                       1.3884653170E+01  1.2522474641E+01  1.4138964090E+00
                       2.0714745799E+01  2.7300726250E+01  8.6319054562E+00
             xred      4.3431824194E-01  4.4326886405E-01  8.2687324488E-01
                       1.4789673044E-01  3.0274384148E-01  1.2112240741E-01
                       9.8882417670E-02  1.6687084148E-01  5.9528512739E-01
                       3.2026322143E-01  6.5086820884E-02  3.4715732784E-01
                       9.1021823768E-01  4.4402976975E-01  8.7509398955E-01
                       6.6119007226E-01  3.4603590422E-01  1.5900369898E-01
                       5.6456926134E-01  2.0101283020E-01  6.8036994757E-01
                       8.2695339003E-01  7.9511282059E-02  3.6759695287E-01
                       4.2900106332E-01  9.3409169726E-01  8.2604909283E-01
                       1.7703299679E-01  8.3085094412E-01  1.3898120604E-01
                       8.5169595309E-02  6.6968819844E-01  5.6402592980E-01
                       3.1726153564E-01  5.7640635636E-01  3.4818132709E-01
                       9.0270489384E-01  9.4201951531E-01  8.5656256904E-01
                       6.4744000527E-01  8.1511368981E-01  1.6994113777E-01
                       5.5458454227E-01  6.8317639410E-01  6.4190892444E-01
                       8.1784600657E-01  5.7605525829E-01  3.5148029405E-01
                       8.7554250744E-02  6.2207663662E-02  1.5656148734E-01
                       3.2591324695E-01  1.7632101690E-01  7.8947956400E-01
                       4.0112696258E-01  3.2612933045E-01  3.1915215260E-01
                       1.5817845466E-01  4.0208930647E-01  6.5530861636E-01
                       5.9913395071E-01  9.8782782902E-02  2.0756718906E-01
                       8.5481738140E-01  1.8029739518E-01  8.3979985700E-01
                       9.1531707304E-01  3.3274294606E-01  3.2257036364E-01
                       6.7570258491E-01  4.2628773616E-01  6.9718533585E-01
                       8.3439631762E-02  5.3848310464E-01  1.7730014393E-01
                       3.2589061214E-01  6.6358943142E-01  8.2131713930E-01
                       4.1494693064E-01  8.4757298158E-01  2.9419837855E-01
                       1.3764440871E-01  8.9418197602E-01  6.8275899483E-01
                       5.7798555864E-01  5.7949250268E-01  1.9716229061E-01
                       8.4455837888E-01  6.8185025539E-01  8.3051125207E-01
                       9.0399896958E-01  8.2657057226E-01  3.2958686937E-01
                       6.7221586353E-01  9.3093485475E-01  6.9876059630E-01
                       7.3275912435E-02  3.6111554872E-01  8.1936478376E-01
                       1.7014520371E-01  1.5381111312E-01  2.7655625388E-01
                       3.4797742365E-01  3.5307786360E-01  9.8930613892E-02
                       4.2090774758E-01  9.8854667502E-02  6.8331318356E-01
                       5.8344794943E-01  3.5024591713E-01  8.3450097861E-01
                       6.5992575149E-01  1.5212470074E-01  4.0178752019E-01
                       8.4777026889E-01  4.2554890235E-01  2.0373381772E-01
                       9.2432896063E-01  1.4935034902E-01  6.4492385049E-01
                       7.2744894192E-02  8.0675827861E-01  8.0223849488E-01
                       1.5584363773E-01  6.4154681804E-01  2.6255525179E-01
                       3.3965495502E-01  9.2138743738E-01  1.3158345737E-01
                       4.1023473941E-01  5.9024100537E-01  6.6922091086E-01
                       5.7704108791E-01  8.4711733331E-01  7.6378553829E-01
                       6.5553443756E-01  6.5790511227E-01  3.5584481217E-01
                       8.7320713835E-01  9.3116761853E-01  2.1026784660E-01
                       9.1655161724E-01  6.4626110281E-01  6.4369469589E-01
                       7.3948771743E-02  1.4083756085E-01  9.5730118591E-01
                       9.9664127594E-01  7.2004702050E-02  3.1651614302E-01
                       1.8045556681E-01  9.8378386068E-01  2.6470387014E-01
                       3.9304593380E-01  4.2450337985E-01  4.6542358516E-01
                       3.3504924357E-01  2.3326578105E-01  4.1129244587E-01
                       5.1685206886E-01  2.8096500967E-01  3.1996076274E-01
                       3.3272641670E-01  1.3064253002E-01  1.7863178810E-02
                       4.1308448159E-01  2.7158744387E-01  7.6340911863E-01
                       2.4444538801E-01  9.8638853538E-02  6.3815648205E-01
                       2.6431892738E-01  4.4127998829E-01  7.6026725618E-01
                       1.6958651935E-01  3.2310873383E-01  4.6978288676E-01
                       1.1074107048E-01  5.0213745730E-01  5.4635202472E-01
                       1.7443522940E-02  4.1497906443E-01  1.6865373284E-01
                       9.2029696360E-01  3.7079423455E-01  5.5416193870E-01
                       8.2054569011E-01  2.4670299619E-01  3.0013935123E-01
                       4.8583618286E-01  6.0876610043E-02  2.6188653895E-01
                       5.9908228856E-01  1.8085484432E-01  1.0182976685E+00
                       6.7294603748E-01  1.0064064900E+00  1.6470840596E-01
                       7.5192487310E-01  3.9109521719E-01  9.0081869739E-01
                       6.6803526284E-01  3.4888369498E-01  5.0703291527E-01
                       5.9015007653E-01  5.1647537847E-01  6.8923107131E-01
                       8.5432712028E-01  9.0364336179E-02  1.3814139764E-02
                       9.0546717515E-01  2.7935038181E-01  9.5008606976E-01
                       7.4111890351E-01  2.0500814918E-01  7.6316157132E-01
                       3.5478608710E-01  5.8233240556E-01  1.0288549687E-02
                       4.0566946859E-01  7.6125405894E-01  7.9793053433E-01
                       2.4431752415E-01  6.3984128863E-01  6.1404166917E-01
                       1.9136530956E-01  4.6962325183E-01  1.9358218967E-01
                       5.2343519491E-02  5.6438311645E-01  9.4071473138E-01
                       9.8755443579E-01  5.7952433064E-01  3.2016320563E-01
                       3.8956716201E-01  9.1904936729E-01  4.9265567458E-01
                       3.3488353823E-01  7.5051804285E-01  2.8344057055E-01
                       5.0322137584E-01  8.7744228593E-01  1.0202951531E-01
                       6.4520461910E-02 -8.9327779811E-03  6.3950152996E-01
                       2.3951983947E-01  9.1860967311E-01  8.2187225059E-01
                       1.6890932326E-01  8.2743878694E-01  4.8666200929E-01
                       6.8281210599E-01  5.0214908532E-01  2.3012180056E-01
                       4.8357517923E-01  6.0459874834E-01  3.4469625587E-01
                       5.7870465716E-01  6.5971516919E-01  1.0034403054E+00
                       8.4071308167E-01  5.9013866824E-01 -1.0271358105E-03
                       8.9441076224E-01  7.7901660164E-01  9.4725363113E-01
                       7.3121104979E-01  7.0412849851E-01  7.4445096114E-01
                       5.9743078412E-01  2.8472994714E-02  7.2395433968E-01
                       7.4251323419E-01  8.8926636245E-01  9.0294316495E-01
                       6.8619940468E-01  8.8683915408E-01  4.6865881630E-01
                       1.6182477609E-02  7.8312900604E-01  2.8728111401E-01
                       9.0523562769E-01  8.4987036746E-01  5.6943765587E-01
                       8.1275742064E-01  7.4337737755E-01  2.8141874277E-01
                       5.4786829919E-02 -4.5038848353E-02  2.5653034399E-02
                       2.2181069999E-01  2.5192094433E-01  8.0538949748E-01
                       1.0139563846E+00  2.5628307225E-01  3.1482041478E-01
                       7.7932198844E-01  5.0083799910E-01  6.3802601783E-01
                       2.3133539508E-01  7.1930083500E-01  9.3037166917E-01
                       5.1951084209E-01  7.9159941180E-01  3.9605035592E-01
                       5.2241756709E-01  4.6688629917E-01  1.1681036830E-01
                       7.8803850539E-01  1.0118678918E+00  6.5319010090E-01
            znucl       57.00000   42.00000    8.00000
 
================================================================================
 
 chkinp: Checking input parameters for consistency, jdtset=   1.
 
 chkinp: Checking input parameters for consistency, jdtset=   2.
 
================================================================================
== DATASET  1 ==================================================================
-   mpi_nproc: 60, omp_nthreads: 1 (-1 if OMP is not activated)
 

--- !DatasetInfo
iteration_state: {dtset: 1, }
dimensions: {natom: 104, nkpt: 1, mband: 420, nsppol: 1, nspinor: 1, nspden: 1, mpw: 1298, }
cutoff_energies: {ecut:  30.0, pawecutdg:  30.0, }
electrons: {nelect:   8.32000000E+02, charge:   0.00000000E+00, occopt:   1.00000000E+00, tsmear:   1.00000000E-02, }
meta: {optdriver: 0, ionmov: 0, optcell: 0, iscf: 7, paral_kgb: 1, }
...

 Real(R)+Recip(G) space primitive vectors, cartesian coordinates (Bohr,Bohr^-1):
 R(1)= 26.9500866 -0.3614091 -0.4912829  G(1)=  0.0371247  0.0004770  0.0006936
 R(2)= -0.3533138 27.2026468  0.2016844  G(2)=  0.0004887  0.0367693 -0.0002413
 R(3)= -0.2533002  0.0919268 13.4952709  G(3)=  0.0013442 -0.0005321  0.0741289
 Unit cell volume ucvol=  9.8879942E+03 bohr^3
 Angles (23,13,12)=  8.91711760E+01  9.21246353E+01  9.15198872E+01 degrees
 
 Coarse grid specifications (used for wave-functions):
 
 getcut: wavevector=  0.0000  0.0000  0.0000  ngfft= 144 144  72
         ecut(hartree)=     30.000   => boxcut(ratio)=   2.14693
 
 Fine grid specifications (used for densities):
 
 getcut: wavevector=  0.0000  0.0000  0.0000  ngfft= 144 144  72
         ecut(hartree)=     30.000   => boxcut(ratio)=   2.14693
 
--- Pseudopotential description ------------------------------------------------
- pspini: atom type   1  psp file is ~/ABINIT_PAW_PBE/paw_pbe_standard/La.xml
- pspatm: opening atomic psp file    ~/ABINIT_PAW_PBE/paw_pbe_standard/La.xml
- pspatm : Reading pseudopotential header in XML form from ~/ABINIT_PAW_PBE/paw_pbe_standard/La.xml
 Pseudopotential format is: paw10
 basis_size (lnmax)=  8 (lmn_size= 32), orbitals=   0   0   1   1   2   2   3   3
 Spheres core radius: rc_sph= 2.51647158
 1 radial meshes are used:
  - mesh 1: r(i)=AA*[exp(BB*(i-1))-1], size=1500 , AA= 0.15403E-03 BB= 0.87795E-02
 Shapefunction is SIN type: shapef(r)=[sin(pi*r/rshp)/(pi*r/rshp)]**2
 Radius for shape functions =  2.30494653
 mmax= 1500
 Radial grid used for partial waves is grid 1
 Radial grid used for projectors is grid 1
 Radial grid used for (t)core density is grid 1
 Radial grid used for Vloc is grid 1
 Radial grid used for pseudo valence density is grid 1
 Mesh size for Vloc has been set to 1342 to avoid numerical noise.
 Compensation charge density is not taken into account in XC energy/potential
 pspatm: atomic psp has been read  and splines computed
 
- pspini: atom type   2  psp file is ~/ABINIT_PAW_PBE/paw_pbe_standard/Mo.xml
- pspatm: opening atomic psp file    ~/ABINIT_PAW_PBE/paw_pbe_standard/Mo.xml
- pspatm : Reading pseudopotential header in XML form from ~/ABINIT_PAW_PBE/paw_pbe_standard/Mo.xml
 Pseudopotential format is: paw10
 basis_size (lnmax)=  6 (lmn_size= 18), orbitals=   0   0   1   1   2   2
 Spheres core radius: rc_sph= 2.20000000
 1 radial meshes are used:
  - mesh 1: r(i)=AA*[exp(BB*(i-1))-1], size= 846 , AA= 0.34789E-03 BB= 0.14611E-01
 Shapefunction is SIN type: shapef(r)=[sin(pi*r/rshp)/(pi*r/rshp)]**2
 Radius for shape functions =  1.90088266
 mmax=  846
 Radial grid used for partial waves is grid 1
 Radial grid used for projectors is grid 1
 Radial grid used for (t)core density is grid 1
 Radial grid used for Vloc is grid 1
 Radial grid used for pseudo valence density is grid 1
 Mesh size for Vloc has been set to  751 to avoid numerical noise.
 Compensation charge density is not taken into account in XC energy/potential
 pspatm: atomic psp has been read  and splines computed
 
- pspini: atom type   3  psp file is ~/ABINIT_PAW_PBE/paw_pbe_standard/O.xml
- pspatm: opening atomic psp file    ~/ABINIT_PAW_PBE/paw_pbe_standard/O.xml
- pspatm : Reading pseudopotential header in XML form from ~/ABINIT_PAW_PBE/paw_pbe_standard/O.xml
 Pseudopotential format is: paw10
 basis_size (lnmax)=  4 (lmn_size=  8), orbitals=   0   0   1   1
 Spheres core radius: rc_sph= 1.41465230
 1 radial meshes are used:
  - mesh 1: r(i)=AA*[exp(BB*(i-1))-1], size=2001 , AA= 0.72565E-03 BB= 0.58052E-02
 Shapefunction is SIN type: shapef(r)=[sin(pi*r/rshp)/(pi*r/rshp)]**2
 Radius for shape functions =  1.20231231
 mmax= 2001
 Radial grid used for partial waves is grid 1
 Radial grid used for projectors is grid 1
 Radial grid used for (t)core density is grid 1
 Radial grid used for Vloc is grid 1
 Radial grid used for pseudo valence density is grid 1
 Mesh size for Vloc has been set to 1762 to avoid numerical noise.
 Compensation charge density is not taken into account in XC energy/potential
 pspatm: atomic psp has been read  and splines computed
 
   1.43661083E+06                                ecore*ucvol(ha*bohr**3)
--------------------------------------------------------------------------------
 
_setup2: Arith. and geom. avg. npw (full set) are    1298.000    1298.000
 
================================================================================

--- !BeginCycle
iteration_state: {dtset: 1, }
solver: {iscf: 7, nstep: 100, nline: 4, wfoptalg: 114, }
tolerances: {tolvrs: 1.00E-20, }
...
 
     iter   Etot(hartree)      deltaE(h)  residm     vres2
 ETOT  1  -2758.5890761496    -2.759E+03 1.489E-02 7.223E+04
 ETOT  2  -2738.0978457300     2.049E+01 6.300E-04 1.591E+05
 ETOT  3  -2774.8740824213    -3.678E+01 3.410E-04 1.131E+04
 ETOT  4  -2777.3637261822    -2.490E+00 8.857E-05 4.682E+02
 ETOT  5  -2777.3496122515     1.411E-02 5.748E-05 3.451E+02
 ETOT  6  -2777.4164900444    -6.688E-02 6.432E-05 5.696E+01
 ETOT  7  -2777.4258586548    -9.369E-03 2.766E-05 4.251E+00
 ETOT  8  -2777.4266825322    -8.239E-04 2.182E-05 2.770E+00
 ETOT  9  -2777.4271751364    -4.926E-04 1.461E-05 3.676E-01
 ETOT 10  -2777.4272134318    -3.830E-05 1.027E-05 1.454E-01
 ETOT 11  -2777.4272335271    -2.010E-05 8.900E-06 4.970E-02
 ETOT 12  -2777.4272422514    -8.724E-06 7.298E-06 1.356E-02
 ETOT 13  -2777.4272436562    -1.405E-06 5.218E-06 2.816E-03
 ETOT 14  -2777.4272441940    -5.378E-07 4.204E-06 5.003E-04
 ETOT 15  -2777.4272442841    -9.007E-08 2.949E-06 1.743E-04
 ETOT 16  -2777.4272443103    -2.617E-08 2.537E-06 5.230E-05
 ETOT 17  -2777.4272443167    -6.472E-09 1.807E-06 1.825E-05
 ETOT 18  -2777.4272443191    -2.328E-09 1.932E-06 7.559E-06
 ETOT 19  -2777.4272443201    -1.092E-09 1.197E-06 1.659E-06
 ETOT 20  -2777.4272443204    -2.074E-10 1.429E-06 3.762E-07
 ETOT 21  -2777.4272443204    -8.185E-11 1.020E-06 1.414E-07
 ETOT 22  -2777.4272443204     3.183E-12 8.782E-07 2.907E-08
 ETOT 23  -2777.4272443204    -8.185E-12 6.564E-07 1.246E-08
 ETOT 24  -2777.4272443204     2.274E-12 8.303E-07 3.226E-09
 ETOT 25  -2777.4272443204    -1.819E-12 5.140E-07 1.369E-09
 ETOT 26  -2777.4272443204    -1.819E-12 6.039E-07 4.458E-10
 ETOT 27  -2777.4272443204     0.000E+00 4.623E-07 8.923E-11
 ETOT 28  -2777.4272443204     9.095E-13 4.129E-07 4.428E-11
 ETOT 29  -2777.4272443204    -1.819E-12 4.413E-07 7.575E-12
 ETOT 30  -2777.4272443204     4.093E-12 3.055E-07 3.504E-12
 ETOT 31  -2777.4272443204    -1.819E-12 3.333E-07 7.159E-13
 ETOT 32  -2777.4272443204     0.000E+00 2.595E-07 3.440E-13
 ETOT 33  -2777.4272443204     2.274E-12 2.618E-07 1.136E-13
 ETOT 34  -2777.4272443204    -5.457E-12 2.095E-07 4.194E-14
 ETOT 35  -2777.4272443204     6.366E-12 2.056E-07 3.083E-14
 ETOT 36  -2777.4272443204    -3.638E-12 1.983E-07 1.075E-14
 ETOT 37  -2777.4272443204    -4.547E-13 1.622E-07 2.386E-15
 ETOT 38  -2777.4272443204     9.095E-13 1.384E-07 7.164E-16
 ETOT 39  -2777.4272443204    -1.364E-12 1.243E-07 3.732E-16
 ETOT 40  -2777.4272443204     4.093E-12 1.302E-07 7.297E-17
 ETOT 41  -2777.4272443204    -1.819E-12 1.095E-07 5.848E-17
 ETOT 42  -2777.4272443204    -9.095E-13 1.124E-07 9.496E-18
 ETOT 43  -2777.4272443204     1.364E-12 7.781E-08 4.035E-18
 ETOT 44  -2777.4272443204     4.547E-13 7.505E-08 1.446E-18
 ETOT 45  -2777.4272443204     9.095E-13 7.597E-08 1.637E-18
 ETOT 46  -2777.4272443204    -2.728E-12 6.823E-08 1.307E-19
 ETOT 47  -2777.4272443204     2.274E-12 9.356E-09 3.161E-20
 ETOT 48  -2777.4272443204    -4.547E-13 6.869E-09 1.606E-20
 ETOT 49  -2777.4272443204    -4.547E-13 6.810E-09 6.819E-21
 
 At SCF step   49       vres2   =  6.82E-21 < tolvrs=  1.00E-20 =>converged.
 
 Cartesian components of stress tensor (hartree/bohr^3)
  sigma(1 1)= -3.43942930E-12  sigma(3 2)= -5.77825570E-12
  sigma(2 2)= -8.68629127E-12  sigma(3 1)= -1.69945967E-05
  sigma(3 3)= -1.48924970E-12  sigma(2 1)= -1.88920460E-12
 

--- !ResultsGS
iteration_state: {dtset: 1, }
comment   : Summary of ground state results
lattice_vectors:
- [ 26.9500866,  -0.3614091,  -0.4912829, ]
- [ -0.3533138,  27.2026468,   0.2016844, ]
- [ -0.2533002,   0.0919268,  13.4952709, ]
lattice_lengths: [  26.95699,   27.20569,   13.49796, ]
lattice_angles: [ 89.171,  92.125,  91.520, ] # degrees, (23, 13, 12)
lattice_volume:   9.8879942E+03
convergence: {deltae: -4.547E-13, res2:  6.819E-21, residm:  6.810E-09, diffor: null, }
etotal    :  -2.77742724E+03
entropy   :   0.00000000E+00
fermie    :   1.15951669E-01
cartesian_stress_tensor: # hartree/bohr^3
- [ -3.43942930E-12,  -1.88920460E-12,  -1.69945967E-05, ]
- [ -1.88920460E-12,  -8.68629127E-12,  -5.77825570E-12, ]
- [ -1.69945967E-05,  -5.77825570E-12,  -1.48924970E-12, ]
pressure_GPa:   1.3352E-07
xred      :
- [  4.3432E-01,   4.4327E-01,   8.2687E-01, La]
- [  1.4790E-01,   3.0274E-01,   1.2112E-01, La]
- [  9.8882E-02,   1.6687E-01,   5.9529E-01, La]
- [  3.2026E-01,   6.5087E-02,   3.4716E-01, La]
- [  9.1022E-01,   4.4403E-01,   8.7509E-01, La]
- [  6.6119E-01,   3.4604E-01,   1.5900E-01, La]
- [  5.6457E-01,   2.0101E-01,   6.8037E-01, La]
- [  8.2695E-01,   7.9511E-02,   3.6760E-01, La]
- [  4.2900E-01,   9.3409E-01,   8.2605E-01, La]
- [  1.7703E-01,   8.3085E-01,   1.3898E-01, La]
- [  8.5170E-02,   6.6969E-01,   5.6403E-01, La]
- [  3.1726E-01,   5.7641E-01,   3.4818E-01, La]
- [  9.0270E-01,   9.4202E-01,   8.5656E-01, La]
- [  6.4744E-01,   8.1511E-01,   1.6994E-01, La]
- [  5.5458E-01,   6.8318E-01,   6.4191E-01, La]
- [  8.1785E-01,   5.7606E-01,   3.5148E-01, La]
- [  8.7554E-02,   6.2208E-02,   1.5656E-01, Mo]
- [  3.2591E-01,   1.7632E-01,   7.8948E-01, Mo]
- [  4.0113E-01,   3.2613E-01,   3.1915E-01, Mo]
- [  1.5818E-01,   4.0209E-01,   6.5531E-01, Mo]
- [  5.9913E-01,   9.8783E-02,   2.0757E-01, Mo]
- [  8.5482E-01,   1.8030E-01,   8.3980E-01, Mo]
- [  9.1532E-01,   3.3274E-01,   3.2257E-01, Mo]
- [  6.7570E-01,   4.2629E-01,   6.9719E-01, Mo]
- [  8.3440E-02,   5.3848E-01,   1.7730E-01, Mo]
- [  3.2589E-01,   6.6359E-01,   8.2132E-01, Mo]
- [  4.1495E-01,   8.4757E-01,   2.9420E-01, Mo]
- [  1.3764E-01,   8.9418E-01,   6.8276E-01, Mo]
- [  5.7799E-01,   5.7949E-01,   1.9716E-01, Mo]
- [  8.4456E-01,   6.8185E-01,   8.3051E-01, Mo]
- [  9.0400E-01,   8.2657E-01,   3.2959E-01, Mo]
- [  6.7222E-01,   9.3093E-01,   6.9876E-01, Mo]
- [  7.3276E-02,   3.6112E-01,   8.1936E-01,  O]
- [  1.7015E-01,   1.5381E-01,   2.7656E-01,  O]
- [  3.4798E-01,   3.5308E-01,   9.8931E-02,  O]
- [  4.2091E-01,   9.8855E-02,   6.8331E-01,  O]
- [  5.8345E-01,   3.5025E-01,   8.3450E-01,  O]
- [  6.5993E-01,   1.5212E-01,   4.0179E-01,  O]
- [  8.4777E-01,   4.2555E-01,   2.0373E-01,  O]
- [  9.2433E-01,   1.4935E-01,   6.4492E-01,  O]
- [  7.2745E-02,   8.0676E-01,   8.0224E-01,  O]
- [  1.5584E-01,   6.4155E-01,   2.6256E-01,  O]
- [  3.3965E-01,   9.2139E-01,   1.3158E-01,  O]
- [  4.1023E-01,   5.9024E-01,   6.6922E-01,  O]
- [  5.7704E-01,   8.4712E-01,   7.6379E-01,  O]
- [  6.5553E-01,   6.5791E-01,   3.5584E-01,  O]
- [  8.7321E-01,   9.3117E-01,   2.1027E-01,  O]
- [  9.1655E-01,   6.4626E-01,   6.4369E-01,  O]
- [  7.3949E-02,   1.4084E-01,   9.5730E-01,  O]
- [  9.9664E-01,   7.2005E-02,   3.1652E-01,  O]
- [  1.8046E-01,   9.8378E-01,   2.6470E-01,  O]
- [  3.9305E-01,   4.2450E-01,   4.6542E-01,  O]
- [  3.3505E-01,   2.3327E-01,   4.1129E-01,  O]
- [  5.1685E-01,   2.8097E-01,   3.1996E-01,  O]
- [  3.3273E-01,   1.3064E-01,   1.7863E-02,  O]
- [  4.1308E-01,   2.7159E-01,   7.6341E-01,  O]
- [  2.4445E-01,   9.8639E-02,   6.3816E-01,  O]
- [  2.6432E-01,   4.4128E-01,   7.6027E-01,  O]
- [  1.6959E-01,   3.2311E-01,   4.6978E-01,  O]
- [  1.1074E-01,   5.0214E-01,   5.4635E-01,  O]
- [  1.7444E-02,   4.1498E-01,   1.6865E-01,  O]
- [  9.2030E-01,   3.7079E-01,   5.5416E-01,  O]
- [  8.2055E-01,   2.4670E-01,   3.0014E-01,  O]
- [  4.8584E-01,   6.0877E-02,   2.6189E-01,  O]
- [  5.9908E-01,   1.8085E-01,   1.0183E+00,  O]
- [  6.7295E-01,   1.0064E+00,   1.6471E-01,  O]
- [  7.5192E-01,   3.9110E-01,   9.0082E-01,  O]
- [  6.6804E-01,   3.4888E-01,   5.0703E-01,  O]
- [  5.9015E-01,   5.1648E-01,   6.8923E-01,  O]
- [  8.5433E-01,   9.0364E-02,   1.3814E-02,  O]
- [  9.0547E-01,   2.7935E-01,   9.5009E-01,  O]
- [  7.4112E-01,   2.0501E-01,   7.6316E-01,  O]
- [  3.5479E-01,   5.8233E-01,   1.0289E-02,  O]
- [  4.0567E-01,   7.6125E-01,   7.9793E-01,  O]
- [  2.4432E-01,   6.3984E-01,   6.1404E-01,  O]
- [  1.9137E-01,   4.6962E-01,   1.9358E-01,  O]
- [  5.2344E-02,   5.6438E-01,   9.4071E-01,  O]
- [  9.8755E-01,   5.7952E-01,   3.2016E-01,  O]
- [  3.8957E-01,   9.1905E-01,   4.9266E-01,  O]
- [  3.3488E-01,   7.5052E-01,   2.8344E-01,  O]
- [  5.0322E-01,   8.7744E-01,   1.0203E-01,  O]
- [  6.4520E-02,  -8.9328E-03,   6.3950E-01,  O]
- [  2.3952E-01,   9.1861E-01,   8.2187E-01,  O]
- [  1.6891E-01,   8.2744E-01,   4.8666E-01,  O]
- [  6.8281E-01,   5.0215E-01,   2.3012E-01,  O]
- [  4.8358E-01,   6.0460E-01,   3.4470E-01,  O]
- [  5.7870E-01,   6.5972E-01,   1.0034E+00,  O]
- [  8.4071E-01,   5.9014E-01,  -1.0271E-03,  O]
- [  8.9441E-01,   7.7902E-01,   9.4725E-01,  O]
- [  7.3121E-01,   7.0413E-01,   7.4445E-01,  O]
- [  5.9743E-01,   2.8473E-02,   7.2395E-01,  O]
- [  7.4251E-01,   8.8927E-01,   9.0294E-01,  O]
- [  6.8620E-01,   8.8684E-01,   4.6866E-01,  O]
- [  1.6182E-02,   7.8313E-01,   2.8728E-01,  O]
- [  9.0524E-01,   8.4987E-01,   5.6944E-01,  O]
- [  8.1276E-01,   7.4338E-01,   2.8142E-01,  O]
- [  5.4787E-02,  -4.5039E-02,   2.5653E-02,  O]
- [  2.2181E-01,   2.5192E-01,   8.0539E-01,  O]
- [  1.0140E+00,   2.5628E-01,   3.1482E-01,  O]
- [  7.7932E-01,   5.0084E-01,   6.3803E-01,  O]
- [  2.3134E-01,   7.1930E-01,   9.3037E-01,  O]
- [  5.1951E-01,   7.9160E-01,   3.9605E-01,  O]
- [  5.2242E-01,   4.6689E-01,   1.1681E-01,  O]
- [  7.8804E-01,   1.0119E+00,   6.5319E-01,  O]
cartesian_forces: # hartree/bohr
- [  4.49531723E-10,   6.25133865E-11,  -3.20506052E-09, ]
- [  1.71530285E-09,  -1.01258198E-09,   2.60441046E-10, ]
- [  3.84618231E-09,   8.22313311E-10,   3.95706338E-09, ]
- [  1.65111537E-09,  -2.52811372E-10,  -4.88349638E-10, ]
- [  7.03671217E-10,  -1.65757151E-09,  -4.63273252E-10, ]
- [ -8.10656233E-11,   5.09765782E-11,   5.47864111E-10, ]
- [ -3.33251556E-09,  -6.14293359E-10,  -2.53240447E-09, ]
- [ -2.62260187E-09,   2.35019409E-09,  -1.61157206E-09, ]
- [  1.84263397E-09,  -6.73661908E-11,  -2.12202890E-09, ]
- [  7.78725107E-10,  -2.49604589E-09,  -6.98163765E-10, ]
- [ -6.63425038E-09,  -1.22233116E-09,   8.30713455E-10, ]
- [ -1.37428101E-09,  -3.92553722E-09,  -2.81054973E-10, ]
- [ -1.42232545E-09,  -1.47938588E-09,   2.73554159E-09, ]
- [ -1.19356043E-09,   5.01995652E-09,  -6.55264333E-09, ]
- [  1.81300565E-09,   2.81264127E-09,  -4.90239456E-09, ]
- [  5.01958709E-09,   2.26258935E-09,   4.25309815E-10, ]
- [  5.04174183E-09,   1.58403445E-09,   7.77584566E-09, ]
- [ -1.78125617E-09,   5.00811229E-09,   4.26432358E-09, ]
- [  3.53481849E-09,   3.08939862E-09,  -9.35499271E-10, ]
- [  6.19460592E-10,  -7.74428406E-10,   1.15638114E-09, ]
- [ -1.73746317E-09,  -7.85338848E-10,   3.49862386E-09, ]
- [  2.69913903E-09,  -1.65666559E-09,   4.72831864E-10, ]
- [ -9.57973752E-10,  -2.15771043E-09,   3.90670887E-09, ]
- [ -1.53334143E-09,  -4.31006364E-09,   4.08880610E-09, ]
- [ -1.93228210E-09,   1.06652674E-09,   1.67573698E-09, ]
- [ -2.90836554E-09,   2.88857738E-09,   8.69447447E-10, ]
- [ -2.45088823E-09,  -4.75003839E-09,   5.67541040E-09, ]
- [  2.88402780E-10,  -1.49242393E-09,  -6.93495854E-10, ]
- [ -3.28621701E-09,  -4.66359101E-09,  -4.07800167E-09, ]
- [ -1.20518056E-09,   1.24160356E-09,   4.09384628E-10, ]
- [ -8.46942377E-10,   1.15709413E-09,   1.33799218E-09, ]
- [ -6.94280431E-09,  -5.02119191E-09,   3.67462120E-10, ]
- [  1.71389599E-09,  -4.13117151E-09,  -1.75726427E-09, ]
- [  5.58071546E-10,  -3.74101066E-09,  -4.30118770E-10, ]
- [  3.09218229E-09,  -2.53665425E-09,   4.96940075E-09, ]
- [  2.69577803E-09,  -5.75813464E-09,  -8.03800386E-10, ]
- [  7.72222286E-09,   3.05969349E-09,  -3.61284211E-09, ]
- [  2.28418387E-09,  -1.32606339E-09,   1.71686540E-10, ]
- [  3.26396987E-09,   3.21892485E-09,   8.82013346E-10, ]
- [ -4.74785675E-09,   1.31146224E-09,   2.38496476E-09, ]
- [  2.70102914E-10,   2.26374821E-09,  -1.14674297E-09, ]
- [ -5.70810830E-10,  -1.52185286E-09,  -2.92515445E-10, ]
- [  2.14782353E-09,  -1.12798117E-09,   1.74879895E-09, ]
- [ -3.10003376E-09,   3.23810024E-09,  -5.10322206E-10, ]
- [  5.55988628E-09,   2.15072775E-09,  -1.05831121E-09, ]
- [  2.08651417E-09,   5.44258725E-09,   1.25899877E-09, ]
- [ -6.05958959E-10,   9.38105950E-09,  -7.17052761E-10, ]
- [  1.63361502E-09,   1.58094926E-10,  -2.84970994E-09, ]
- [ -2.10504649E-09,  -7.75533615E-11,   2.10827440E-09, ]
- [  3.48999512E-10,  -2.87839730E-10,   3.31827112E-11, ]
- [ -1.69205669E-09,   2.63511222E-09,   5.09264672E-11, ]
- [  2.06450790E-09,  -7.62454263E-09,  -4.70514654E-09, ]
- [  4.66619118E-09,   7.77238663E-09,  -6.84692800E-09, ]
- [ -6.17460587E-09,   3.07148613E-09,  -3.84054449E-09, ]
- [  2.43844067E-09,   4.09184308E-10,   6.12810965E-09, ]
- [  4.94844849E-09,   7.40401997E-09,   2.95742421E-09, ]
- [ -6.28024681E-09,  -2.43085129E-09,  -8.80218182E-09, ]
- [  1.10375198E-09,   3.01340504E-09,  -6.24485502E-10, ]
- [  1.03254149E-09,   4.26211794E-10,   3.10705564E-09, ]
- [ -1.84413996E-09,  -2.57654453E-09,   2.07872504E-09, ]
- [ -8.77256483E-10,  -2.27473914E-09,   1.06576386E-09, ]
- [  1.24141051E-09,   9.56856046E-10,   2.41421342E-09, ]
- [  9.20822942E-10,  -1.99237237E-10,  -2.23413758E-09, ]
- [ -2.54942029E-09,   2.32628512E-09,   6.14939097E-09, ]
- [  1.00116663E-09,  -3.03493798E-09,  -6.30259439E-10, ]
- [ -2.98906273E-09,  -6.72526127E-10,   2.35998581E-09, ]
- [ -3.08058642E-09,   3.47839923E-09,  -9.14870141E-09, ]
- [ -2.05434125E-09,   3.70985855E-09,   4.01364322E-09, ]
- [  6.87015479E-09,  -3.62880196E-09,  -2.97780537E-09, ]
- [ -4.16956346E-10,   2.40200491E-09,  -3.13822621E-11, ]
- [ -2.60229447E-09,  -2.33819732E-09,  -1.09591835E-10, ]
- [  4.66268139E-09,  -1.15404902E-09,  -6.73714481E-10, ]
- [ -1.03166723E-09,  -9.65018558E-10,   2.39360507E-09, ]
- [  8.38579551E-10,   1.39889741E-09,   3.27617278E-09, ]
- [  6.74074119E-10,  -2.27722991E-09,  -3.89316005E-09, ]
- [ -4.92788657E-09,   3.03227799E-09,  -1.65901184E-09, ]
- [  4.81601848E-09,   1.28219968E-09,   1.93160184E-09, ]
- [  4.34989457E-09,  -9.93447123E-10,  -5.96174345E-09, ]
- [ -9.58926404E-10,   1.38326701E-09,   1.24249841E-11, ]
- [ -1.13917997E-09,  -3.78220151E-09,  -1.16899890E-09, ]
- [  4.23213784E-10,   1.22639954E-09,  -3.33951733E-09, ]
- [  3.55645755E-09,  -3.28034687E-09,   2.49642836E-10, ]
- [ -9.90611211E-10,   5.89518675E-10,  -1.11327593E-09, ]
- [ -1.55829161E-09,  -2.45501275E-09,   6.92220181E-10, ]
- [ -4.70790199E-09,  -3.77376365E-09,  -1.99610962E-09, ]
- [  3.10188363E-09,  -7.23737947E-10,   9.44446201E-10, ]
- [  1.21226439E-09,   2.00141092E-09,   6.10993756E-10, ]
- [ -8.22489722E-10,  -1.55104703E-09,   1.33397046E-09, ]
- [  1.69113212E-10,   2.59788589E-10,   2.96153457E-09, ]
- [ -4.26978219E-09,  -1.58012571E-10,   1.33981379E-11, ]
- [  1.46583958E-09,   3.25861832E-09,  -1.27060044E-09, ]
- [  2.61119934E-09,   4.21769143E-09,  -2.12997736E-09, ]
- [ -2.73209356E-09,  -3.07387770E-09,   3.60947223E-09, ]
- [  4.88305282E-09,  -5.09357165E-09,  -4.43408370E-09, ]
- [ -1.95469994E-09,   1.12112296E-09,   5.26094647E-09, ]
- [ -3.44330828E-09,  -3.35499768E-09,  -2.08024138E-09, ]
- [ -6.69167992E-09,  -1.71930531E-09,  -1.35060537E-09, ]
- [ -6.24387841E-09,   3.00083947E-09,   1.88744521E-09, ]
- [ -5.67219776E-10,  -5.17606544E-09,  -1.99420220E-09, ]
- [  1.20423137E-09,   2.08765552E-09,   2.15576057E-09, ]
- [  2.29589397E-10,   2.64521854E-09,   7.57524674E-10, ]
- [  1.54510479E-10,  -2.18427414E-09,  -1.57324860E-09, ]
- [  1.75198654E-09,   1.03124327E-09,   5.92740928E-10, ]
- [  2.01015213E-10,  -4.38314029E-10,  -4.90070418E-10, ]
force_length_stats: {min:   4.53600554E-10, max:   1.13606231E-08, mean:   4.65262262E-09, }
...

 Integrated electronic density in atomic spheres:
 ------------------------------------------------
 Atom  Sphere_radius  Integrated_density
    1        2.51647          7.86251542
    2        2.51647          7.84656974
    3        2.51647          7.86430365
    4        2.51647          7.90821895
    5        2.51647          7.87502773
    6        2.51647          7.87067784
    7        2.51647          7.84093360
    8        2.51647          7.86230910
    9        2.51647          7.83723320
   10        2.51647          7.84803566
   11        2.51647          7.88349951
   12        2.51647          7.85922152
   13        2.51647          7.90195345
   14        2.51647          7.85804469
   15        2.51647          7.86297711
   16        2.51647          7.92019031
   17        2.20000         11.39625912
   18        2.20000         11.34640371
   19        2.20000         11.56823463
   20        2.20000         11.56497274
   21        2.20000         11.60608925
   22        2.20000         11.55282540
   23        2.20000         11.40964540
   24        2.20000         11.41087349
   25        2.20000         11.33360721
   26        2.20000         11.38596452
   27        2.20000         11.39947152
   28        2.20000         11.56313810
   29        2.20000         11.38982918
   30        2.20000         11.56729709
   31        2.20000         11.58407437
   32        2.20000         11.36088377
   33        1.41465          4.55294439
   34        1.41465          4.55912240
   35        1.41465          4.55226737
   36        1.41465          4.52494913
   37        1.41465          4.54787339
   38        1.41465          4.55848193
   39        1.41465          4.56296849
   40        1.41465          4.55410116
   41        1.41465          4.53705320
   42        1.41465          4.53171980
   43        1.41465          4.54269771
   44        1.41465          4.57201481
   45        1.41465          4.55495111
   46        1.41465          4.53685476
   47        1.41465          4.55470724
   48        1.41465          4.55960838
   49        1.41465          4.53714639
   50        1.41465          4.54391786
   51        1.41465          4.57978696
   52        1.41465          4.53805148
   53        1.41465          4.55666266
   54        1.41465          4.54527292
   55        1.41465          4.55678736
   56        1.41465          4.55335171
   57        1.41465          4.56940238
   58        1.41465          4.54534509
   59        1.41465          4.55148968
   60        1.41465          4.55082013
   61        1.41465          4.54501414
   62        1.41465          4.53799843
   63        1.41465          4.53475713
   64        1.41465          4.56516630
   65        1.41465          4.55835333
   66        1.41465          4.55444162
   67        1.41465          4.57637431
   68        1.41465          4.55176210
   69        1.41465          4.55810094
   70        1.41465          4.57908164
   71        1.41465          4.55759991
   72        1.41465          4.54848108
   73        1.41465          4.54219452
   74        1.41465          4.53544663
   75        1.41465          4.58691053
   76        1.41465          4.54487832
   77        1.41465          4.52022427
   78        1.41465          4.54882230
   79        1.41465          4.55659883
   80        1.41465          4.54579398
   81        1.41465          4.56750051
   82        1.41465          4.55026429
   83        1.41465          4.54462585
   84        1.41465          4.56281674
   85        1.41465          4.57347658
   86        1.41465          4.58028991
   87        1.41465          4.54646378
   88        1.41465          4.57617598
   89        1.41465          4.55348326
   90        1.41465          4.53227566
   91        1.41465          4.55166904
   92        1.41465          4.56297430
   93        1.41465          4.55676725
   94        1.41465          4.54285602
   95        1.41465          4.56385910
   96        1.41465          4.57513987
   97        1.41465          4.55092870
   98        1.41465          4.54350236
   99        1.41465          4.56701933
  100        1.41465          4.57328663
  101        1.41465          4.54527340
  102        1.41465          4.57367350
  103        1.41465          4.54471951
  104        1.41465          4.54118527
 
 PAW TEST:
 ==== Compensation charge inside spheres ============
 The following values must be close to each other ...
 Compensation charge over spherical meshes =     84.134769740582470
 Compensation charge over fft grid         =     84.134837104224033
 
 ==== Results concerning PAW augmentation regions ====
 
 Total pseudopotential strength Dij (hartree):
 Atom #  1
   0.46899  -0.11636  -0.00032  -0.00011   0.00001  -0.00001  -0.00001   0.00001   0.00001   0.00003  -0.00000   0.00004 ...
  -0.11636   0.02290   0.00006   0.00002  -0.00000  -0.00002  -0.00000   0.00000   0.00000   0.00000   0.00000  -0.00001 ...
  -0.00032   0.00006  -0.18187   0.00001  -0.00001   0.04177   0.00014   0.00011   0.00001  -0.00003   0.00005   0.00002 ...
  -0.00011   0.00002   0.00001  -0.18189   0.00007   0.00014   0.04195  -0.00014   0.00002  -0.00011  -0.00002   0.00002 ...
   0.00001  -0.00000  -0.00001   0.00007  -0.18185   0.00011  -0.00014   0.04189  -0.00009   0.00002   0.00002  -0.00003 ...
  -0.00001  -0.00002   0.04177   0.00014   0.00011   0.32000   0.00003   0.00002   0.00003   0.00001  -0.00002   0.00001 ...
  -0.00001  -0.00000   0.00014   0.04195  -0.00014   0.00003   0.32004  -0.00004   0.00001  -0.00006  -0.00002   0.00002 ...
   0.00001   0.00000   0.00011  -0.00014   0.04189   0.00002  -0.00004   0.32001  -0.00000   0.00001   0.00000  -0.00002 ...
   0.00001   0.00000   0.00001   0.00002  -0.00009   0.00003   0.00001  -0.00000  -0.05791  -0.00000  -0.00001   0.00002 ...
   0.00003   0.00000  -0.00003  -0.00011   0.00002   0.00001  -0.00006   0.00001  -0.00000  -0.05791   0.00001   0.00001 ...
  -0.00000   0.00000   0.00005  -0.00002   0.00002  -0.00002  -0.00002   0.00000  -0.00001   0.00001  -0.05789  -0.00000 ...
   0.00004  -0.00001   0.00002   0.00002  -0.00003   0.00001   0.00002  -0.00002   0.00002   0.00001  -0.00000  -0.05789 ...
   ...  only 12  components have been written...
 Atom #104
   0.61509  -1.76347   0.00039  -0.00002   0.00021  -0.00285   0.00018  -0.00158
  -1.76347   5.11385  -0.00101   0.00006  -0.00056   0.00760  -0.00053   0.00424
   0.00039  -0.00101  -0.30691   0.00034  -0.00028   0.95084  -0.00175   0.00144
  -0.00002   0.00006   0.00034  -0.30688   0.00004  -0.00175   0.95056  -0.00020
   0.00021  -0.00056  -0.00028   0.00004  -0.30712   0.00144  -0.00020   0.95185
  -0.00285   0.00760   0.95084  -0.00175   0.00144  -0.18300   0.00880  -0.00713
   0.00018  -0.00053  -0.00175   0.95056  -0.00020   0.00880  -0.18114   0.00103
  -0.00158   0.00424   0.00144  -0.00020   0.95185  -0.00713   0.00103  -0.18775
 
 
 Augmentation waves occupancies Rhoij:
 Atom #  1
   2.02495  -0.08075   0.00133   0.00070  -0.00175  -0.00109  -0.00031   0.00059   0.00591   0.00834   0.00468  -0.01414 ...
  -0.08075   0.24746  -0.00869  -0.00305   0.00496   0.00342   0.00113  -0.00003  -0.00935  -0.01372  -0.00806   0.02988 ...
   0.00133  -0.00869   2.05054  -0.00578  -0.00374  -0.02458   0.00346   0.00235   0.00679   0.03377  -0.01253  -0.00496 ...
   0.00070  -0.00305  -0.00578   2.04594   0.00904   0.00345  -0.02128  -0.00572  -0.00305  -0.02942  -0.02661  -0.00831 ...
  -0.00175   0.00496  -0.00374   0.00904   2.05137   0.00234  -0.00573  -0.02451   0.00661  -0.00618  -0.01379  -0.00645 ...
  -0.00109   0.00342  -0.02458   0.00345   0.00234   0.01596  -0.00131  -0.00097  -0.00120  -0.01166   0.00375   0.00214 ...
  -0.00031   0.00113   0.00346  -0.02128  -0.00573  -0.00131   0.01454   0.00257   0.00142   0.00896   0.00878   0.00387 ...
   0.00059  -0.00003   0.00235  -0.00572  -0.02451  -0.00097   0.00257   0.01577  -0.00253   0.00262   0.00461   0.00180 ...
   0.00591  -0.00935   0.00679  -0.00305   0.00661  -0.00120   0.00142  -0.00253   0.09343   0.00183   0.01617  -0.00385 ...
   0.00834  -0.01372   0.03377  -0.02942  -0.00618  -0.01166   0.00896   0.00262   0.00183   0.10541   0.00991   0.00511 ...
   0.00468  -0.00806  -0.01253  -0.02661  -0.01379   0.00375   0.00878   0.00461   0.01617   0.00991   0.10331   0.01761 ...
  -0.01414   0.02988  -0.00496  -0.00831  -0.00645   0.00214   0.00387   0.00180  -0.00385   0.00511   0.01761   0.09194 ...
   ...  only 12  components have been written...
 Atom #104
   1.98932   0.03037   0.00065  -0.00679   0.00175  -0.00199  -0.00032  -0.00108
   0.03037   0.00109  -0.00581   0.00029  -0.00332  -0.00020  -0.00001  -0.00010
   0.00065  -0.00581   1.71610  -0.00830   0.01911   0.03008  -0.00264   0.00297
  -0.00679   0.00029  -0.00830   1.76102  -0.00032  -0.00263   0.03032  -0.00043
   0.00175  -0.00332   0.01911  -0.00032   1.75876   0.00296  -0.00043   0.03335
  -0.00199  -0.00020   0.03008  -0.00263   0.00296   0.00068  -0.00014   0.00014
  -0.00032  -0.00001  -0.00264   0.03032  -0.00043  -0.00014   0.00071  -0.00002
  -0.00108  -0.00010   0.00297  -0.00043   0.03335   0.00014  -0.00002   0.00080
 
 
================================================================================
 
 ----iterations are completed or convergence reached----
 
 Mean square residual over all n,k,spin=   16.965E-12; max=  68.097E-10
 reduced coordinates (array xred) for  104 atoms
       0.434318241940      0.443268864050      0.826873244880
       0.147896730440      0.302743841480      0.121122407410
       0.098882417670      0.166870841480      0.595285127390
       0.320263221430      0.065086820884      0.347157327840
       0.910218237680      0.444029769750      0.875093989550
       0.661190072260      0.346035904220      0.159003698980
       0.564569261340      0.201012830200      0.680369947570
       0.826953390030      0.079511282059      0.367596952870
       0.429001063320      0.934091697260      0.826049092830
       0.177032996790      0.830850944120      0.138981206040
       0.085169595309      0.669688198440      0.564025929800
       0.317261535640      0.576406356360      0.348181327090
       0.902704893840      0.942019515310      0.856562569040
       0.647440005270      0.815113689810      0.169941137770
       0.554584542270      0.683176394100      0.641908924440
       0.817846006570      0.576055258290      0.351480294050
       0.087554250744      0.062207663662      0.156561487340
       0.325913246950      0.176321016900      0.789479564000
       0.401126962580      0.326129330450      0.319152152600
       0.158178454660      0.402089306470      0.655308616360
       0.599133950710      0.098782782902      0.207567189060
       0.854817381400      0.180297395180      0.839799857000
       0.915317073040      0.332742946060      0.322570363640
       0.675702584910      0.426287736160      0.697185335850
       0.083439631762      0.538483104640      0.177300143930
       0.325890612140      0.663589431420      0.821317139300
       0.414946930640      0.847572981580      0.294198378550
       0.137644408710      0.894181976020      0.682758994830
       0.577985558640      0.579492502680      0.197162290610
       0.844558378880      0.681850255390      0.830511252070
       0.903998969580      0.826570572260      0.329586869370
       0.672215863530      0.930934854750      0.698760596300
       0.073275912435      0.361115548720      0.819364783760
       0.170145203710      0.153811113120      0.276556253880
       0.347977423650      0.353077863600      0.098930613892
       0.420907747580      0.098854667502      0.683313183560
       0.583447949430      0.350245917130      0.834500978610
       0.659925751490      0.152124700740      0.401787520190
       0.847770268890      0.425548902350      0.203733817720
       0.924328960630      0.149350349020      0.644923850490
       0.072744894192      0.806758278610      0.802238494880
       0.155843637730      0.641546818040      0.262555251790
       0.339654955020      0.921387437380      0.131583457370
       0.410234739410      0.590241005370      0.669220910860
       0.577041087910      0.847117333310      0.763785538290
       0.655534437560      0.657905112270      0.355844812170
       0.873207138350      0.931167618530      0.210267846600
       0.916551617240      0.646261102810      0.643694695890
       0.073948771743      0.140837560850      0.957301185910
       0.996641275940      0.072004702050      0.316516143020
       0.180455566810      0.983783860680      0.264703870140
       0.393045933800      0.424503379850      0.465423585160
       0.335049243570      0.233265781050      0.411292445870
       0.516852068860      0.280965009670      0.319960762740
       0.332726416700      0.130642530020      0.017863178810
       0.413084481590      0.271587443870      0.763409118630
       0.244445388010      0.098638853538      0.638156482050
       0.264318927380      0.441279988290      0.760267256180
       0.169586519350      0.323108733830      0.469782886760
       0.110741070480      0.502137457300      0.546352024720
       0.017443522940      0.414979064430      0.168653732840
       0.920296963600      0.370794234550      0.554161938700
       0.820545690110      0.246702996190      0.300139351230
       0.485836182860      0.060876610043      0.261886538950
       0.599082288560      0.180854844320      1.018297668500
       0.672946037480      1.006406490000      0.164708405960
       0.751924873100      0.391095217190      0.900818697390
       0.668035262840      0.348883694980      0.507032915270
       0.590150076530      0.516475378470      0.689231071310
       0.854327120280      0.090364336179      0.013814139764
       0.905467175150      0.279350381810      0.950086069760
       0.741118903510      0.205008149180      0.763161571320
       0.354786087100      0.582332405560      0.010288549687
       0.405669468590      0.761254058940      0.797930534330
       0.244317524150      0.639841288630      0.614041669170
       0.191365309560      0.469623251830      0.193582189670
       0.052343519491      0.564383116450      0.940714731380
       0.987554435790      0.579524330640      0.320163205630
       0.389567162010      0.919049367290      0.492655674580
       0.334883538230      0.750518042850      0.283440570550
       0.503221375840      0.877442285930      0.102029515310
       0.064520461910     -0.008932777981      0.639501529960
       0.239519839470      0.918609673110      0.821872250590
       0.168909323260      0.827438786940      0.486662009290
       0.682812105990      0.502149085320      0.230121800560
       0.483575179230      0.604598748340      0.344696255870
       0.578704657160      0.659715169190      1.003440305400
       0.840713081670      0.590138668240     -0.001027135810
       0.894410762240      0.779016601640      0.947253631130
       0.731211049790      0.704128498510      0.744450961140
       0.597430784120      0.028472994714      0.723954339680
       0.742513234190      0.889266362450      0.902943164950
       0.686199404680      0.886839154080      0.468658816300
       0.016182477609      0.783129006040      0.287281114010
       0.905235627690      0.849870367460      0.569437655870
       0.812757420640      0.743377377550      0.281418742770
       0.054786829919     -0.045038848353      0.025653034399
       0.221810699990      0.251920944330      0.805389497480
       1.013956384600      0.256283072250      0.314820414780
       0.779321988440      0.500837999100      0.638026017830
       0.231335395080      0.719300835000      0.930371669170
       0.519510842090      0.791599411800      0.396050355920
       0.522417567090      0.466886299170      0.116810368300
       0.788038505390      1.011867891800      0.653190100900
 rms dE/dt=  3.2938E-04; max dE/dt=  2.6975E-04; dE/dt below (all hartree)
    1      -0.000473521785      0.000168986540      0.000269672465
    2      -0.000473554584      0.000169015533      0.000269626116
    3      -0.000473609532      0.000168965627      0.000269576601
    4      -0.000473552947      0.000168994994      0.000269636135
    5      -0.000473527909      0.000169032867      0.000269635686
    6      -0.000473505646      0.000168985909      0.000269621685
    7      -0.000473419773      0.000169003479      0.000269662491
    8      -0.000473437381      0.000168922902      0.000269649972
    9      -0.000473558844      0.000168990346      0.000269658214
   10      -0.000473530350      0.000169055750      0.000269638952
   11      -0.000473329358      0.000169018174      0.000269616325
   12      -0.000473472638      0.000169093791      0.000269632909
   13      -0.000473468977      0.000169026624      0.000269591962
   14      -0.000473477357      0.000168851779      0.000269716769
   15      -0.000473558371      0.000168912553      0.000269695463
   16      -0.000473642370      0.000168927574      0.000269624427
   17      -0.000473639601      0.000168944558      0.000269525298
   18      -0.000473456208      0.000168849712      0.000269570644
   19      -0.000473602725      0.000168904833      0.000269642340
   20      -0.000473524525      0.000169008487      0.000269613726
   21      -0.000473459859      0.000169007479      0.000269581521
   22      -0.000473581227      0.000169033359      0.000269623559
   23      -0.000473481161      0.000169045004      0.000269576337
   24      -0.000473466344      0.000169103314      0.000269573932
   25      -0.000473454834      0.000168957402      0.000269605902
   26      -0.000473428267      0.000168907655      0.000269616368
   27      -0.000473440995      0.000169114638      0.000269552328
   28      -0.000473516771      0.000169028275      0.000269638673
   29      -0.000473423243      0.000169113958      0.000269683734
   30      -0.000473474989      0.000168953152      0.000269623159
   31      -0.000473484218      0.000168955390      0.000269610726
   32      -0.000473322643      0.000169121497      0.000269622847
   33      -0.000473556664      0.000169100774      0.000269653632
   34      -0.000473524722      0.000169089484      0.000269635393
   35      -0.000473589928      0.000169056529      0.000269563057
   36      -0.000473583246      0.000169145186      0.000269641163
   37      -0.000473716902      0.000168907660      0.000269679535
   38      -0.000473570072      0.000169024280      0.000269627487
   39      -0.000473594486      0.000168900847      0.000269617731
   40      -0.000473378518      0.000168949601      0.000269595595
   41      -0.000473515143      0.000168926182      0.000269644439
   42      -0.000473493429      0.000169028691      0.000269633046
   43      -0.000473565551      0.000169018525      0.000269606151
   44      -0.000473423653      0.000168898358      0.000269634908
   45      -0.000473657700      0.000168931107      0.000269644596
   46      -0.000473561765      0.000168839865      0.000269612141
   47      -0.000473488750      0.000168732176      0.000269637764
   48      -0.000473553487      0.000168984286      0.000269667960
   49      -0.000473450379      0.000168988376      0.000269600126
   50      -0.000473517612      0.000168995382      0.000269628771
   51      -0.000473461540      0.000168915145      0.000269627745
   52      -0.000473568824      0.000169196521      0.000269693825
   53      -0.000473634427      0.000168779035      0.000269721972
   54      -0.000473342489      0.000168902475      0.000269679086
   55      -0.000473570676      0.000168975930      0.000269546983
   56      -0.000473637351      0.000168787178      0.000269589765
   57      -0.000473344068      0.000169053117      0.000269746524
   58      -0.000473537082      0.000168905978      0.000269637534
   59      -0.000473534265      0.000168975579      0.000269587395
   60      -0.000473458329      0.000169056453      0.000269600820
   61      -0.000473484775      0.000169048789      0.000269614708
   62      -0.000473540043      0.000168961358      0.000269596750
   63      -0.000473534104      0.000168993631      0.000269659505
   64      -0.000473435549      0.000168922013      0.000269545256
   65      -0.000473536506      0.000169070474      0.000269638142
   66      -0.000473426647      0.000169004197      0.000269596560
   67      -0.000473428334      0.000168893570      0.000269751468
   68      -0.000473449441      0.000168884982      0.000269574077
   69      -0.000473696044      0.000169089176      0.000269671364
   70      -0.000473496029      0.000168921953      0.000269629201
   71      -0.000473438885      0.000169050143      0.000269630138
   72      -0.000473634526      0.000169020611      0.000269639483
   73      -0.000473479488      0.000169012839      0.000269596629
   74      -0.000473528603      0.000168949017      0.000269584974
   75      -0.000473529020      0.000169050405      0.000269682023
   76      -0.000473375031      0.000168903542      0.000269649965
   77      -0.000473636498      0.000168953868      0.000269604138
   78      -0.000473628636      0.000169017199      0.000269710752
   79      -0.000473481769      0.000168949465      0.000269628566
   80      -0.000473479359      0.000169090154      0.000269644939
   81      -0.000473520721      0.000168954897      0.000269674166
   82      -0.000473605028      0.000169077875      0.000269626937
   83      -0.000473481755      0.000168971273      0.000269643822
   84      -0.000473466669      0.000169053528      0.000269619593
   85      -0.000473383585      0.000169088830      0.000269655196
   86      -0.000473591512      0.000169008028      0.000269617210
   87      -0.000473539766      0.000168933296      0.000269620981
   88      -0.000473485857      0.000169029068      0.000269611035
   89      -0.000473511127      0.000168979830      0.000269589156
   90      -0.000473393098      0.000168990222      0.000269627856
   91      -0.000473547069      0.000168899566      0.000269646322
   92      -0.000473578013      0.000168874055      0.000269658122
   93      -0.000473433826      0.000169069359      0.000269579983
   94      -0.000473643736      0.000169128613      0.000269690648
   95      -0.000473452449      0.000168955186      0.000269557507
   96      -0.000473417555      0.000169077903      0.000269656613
   97      -0.000473329062      0.000169032113      0.000269645793
   98      -0.000473337834      0.000168903217      0.000269601774
   99      -0.000473495682      0.000169128439      0.000269656348
  100      -0.000473538759      0.000168930636      0.000269600124
  101      -0.000473512978      0.000168915406      0.000269618696
  102      -0.000473513845      0.000169047225      0.000269650575
  103      -0.000473554671      0.000168959882      0.000269621453
  104      -0.000473513935      0.000168999528      0.000269635808
 
 cartesian coordinates (angstrom) at end:
    1      6.00026311226370     6.33802505239272     5.83942060508615
    2      2.03637220045014     4.33561076231266     0.85884363863973
    3      1.29920734800165     2.41215598075819     4.24326568950507
    4      4.50869059152982     0.89256362948582     2.40287163864304
    5     12.78064398097853     6.26030842112901     6.06014249929522
    6      9.34346751509773     4.86247659189354     1.00054531908859
    7      7.92275225783024     2.81870726323437     4.73346614332552
    8     11.72935074208305     1.00429413086110     2.41865129835772
    9      5.83277631927369    13.40440671069239     5.88730129210209
   10      2.35076363535690    11.93301989091387     1.03516872942740
   11      1.01382413127725     9.65132418939231     4.07726065356644
   12      4.37014599571039     8.25364280872558     2.46553626958365
   13     12.58287038822452    13.42941656662712     5.98290453126699
   14      9.05820521223325    11.61802277390406     1.13229167822085
   15      7.69536379477253     9.75950035888703     4.51285653480564
   16     11.50879059080609     8.15301272354224     2.35891819411340
   17      1.21602739529698     0.88635192356618     1.10194385056707
   18      4.50918154678812     2.51421862669454     5.57206993766501
   19      5.61686630639597     4.63344848469177     2.20971338261528
   20      2.09282680405675     5.78971019387510     4.68160539972608
   21      8.49818045907931     1.31749338962724     1.33710068719062
   22     12.04459152516573     2.47275391144059     5.79434891230280
   23     12.94822783674917     4.63047932678591     2.10115306100847
   24      9.46329326783020     6.04110800438822     4.84870228404108
   25      1.06552032043320     7.74414251539882     1.30194772638246
   26      4.41348876349351     9.53001062346775     5.85144494633167
   27      5.71981078416832    12.13578368334664     2.08356790110050
   28      1.70429925790609    12.87865682000973     4.93549707202189
   29      8.10809386321334     8.24085822086485     1.31959792091713
   30     11.80575598019641     9.69412789359254     5.78421157745455
   31     12.69354686442959    11.74164412899375     2.20690772812902
   32      9.31900502045214    13.30625718365072     4.91471765799715
   33      0.86767058091095     5.22411026918490     5.87089404157090
   34      2.36067678411601     2.19502721179894     1.94717814911173
   35      4.88336118383886     5.02082519934823     0.65371925499941
   36      5.89264758054329     1.37575675674073     4.78093043379220
   37      8.14342695210590     4.97080788805891     5.84519508079420
   38      9.32914838270893     2.08317295732266     2.71399239521860
   39     11.98349517389591     5.97356040804697     1.27996037593763
   40     13.06782933792073     2.00449664049618     4.38128918712101
   41      0.77907327619995    11.63841502825107     5.79628860259101
   42      2.06740372577549     9.21804685845681     1.90296405718865
   43      4.65404019542110    13.20483335866822     0.94972342885336
   44      5.65045242450362     8.45062894066991     4.73551082620453
   45      7.96863718702504    12.12106752460629     5.39488367228363
   46      9.17811686017951     9.36249737710498     2.44101955914495
   47     12.25085067075333    13.24740535609605     1.37397251198976
   48     12.86417327588454     9.15896484511213     4.42756692035372
   49      0.89996179838259     2.05978538283733     6.83226716797527
   50     14.15758311631945     0.86129918860525     2.00894743946659
   51      2.35412902327338    14.13995367322218     1.94843553176767
   52      5.46362085908050     6.05820590804668     3.26689471448093
   53      4.67951914466558     3.31379531120387     2.87499070771979
   54      7.27560083757753     3.96121412550091     2.18058202137919
   55      4.71831500665190     1.81783714568002     0.05501018653938
   56      5.73804586810516     3.86764115339034     5.37339579901858
   57      3.38214548669374     1.40420176574452     4.50430172418623
   58      3.58513948412814     6.33866733405440     5.40774470693572
   59      2.29515610683826     4.64157642928469     3.34529868653497
   60      1.41220369410050     7.23367751584828     3.92651429425431
   61      0.14857527202714     5.97850041017007     1.24417653246686
   62     12.98109092428759     5.18854190995399     3.75780521127530
   63     11.61575111221592     3.40896627301990     1.95641995058222
   64      6.88220503999265     0.79614377636545     1.75042540389647
   65      8.37342814284982     2.53837072131770     7.13561577277763
   66      9.38689243429726    14.36655402809300     1.10870781602819
   67     10.52961227405284     5.52983935181661     6.27935556372782
   68      9.39390679970471     4.91909153196677     3.48448196283657
   69      8.22740136153408     7.35533591199174     4.82376479290799
   70     12.16512983156592     1.13807889996822    -0.11380786477953
   71     12.73362470765085     3.89430189242927     6.57934963528934
   72     10.42874787206655     2.84648238583371     5.27924118538434
   73      4.94948098728176     8.31533488063512     0.04338923465116
   74      5.53611950761582    10.91949964181338     5.67411494924787
   75      3.28236808215659     9.19367339527450     4.38988248057296
   76      2.61538048383965     6.73305483234202     1.38281691441422
   77      0.51487606413249     8.16005755672799     6.76463732560013
   78     13.93261472777686     8.16897001231511     2.09152082891820
   79      5.31789548862511    13.17919566550761     3.51505537696644
   80      4.59758491745190    10.75346459140678     2.01719837860090
   81      6.99889936543431    12.53952233945729     0.69145378473912
   82      0.83610116612559    -0.10981812378945     4.54920257558680
   83      3.13396865167131    13.21757764638116     5.90508100633252
   84      2.18894348341787    11.90236858901478     3.51984065712350
   85      9.61310685163690     7.10905344189591     1.51946765673977
   86      6.73720279890174     8.62749594984502     2.40041939000950
   87      7.99527623610985     9.43474947444661     7.08591846188384
   88     11.87952367780246     8.33422246868256    -0.16291657370110
   89     12.48290434461823    11.08898421530717     6.61532425282889
   90     10.19663791881728    10.03231482790121     5.20146673422870
   91      8.41781958207668     0.33082819923114     5.01776145666221
   92     10.30196374454959    12.70292661462492     6.35014221470444
   93      9.55751688316187    12.65763088820070     3.26312958232224
   94      0.04585875000698    11.28403830712628     2.13096020019281
   95     12.67467727484464    12.08847632594359     3.92194089684498
   96     11.41432798968554    10.55918309985816     1.87776200706480
   97      0.78631750521570    -0.65756519895520     0.16414822059299
   98      3.00826927482405     3.62316464823428     5.72082164657046
   99     14.37029388893858     3.51059614696142     2.01200351224855
  100     10.93503950422604     7.09156559163841     4.40724051392199
  101      3.03996781362997    10.35536608100315     6.66077381266601
  102      7.20784840214643    11.31499984338139     2.77777461430832
  103      7.34744200669221     6.62660817494994     0.74820175496267
  104     10.96177135833487    14.44692210950543     4.56780763413242
 
 cartesian forces (hartree/bohr) at end:
    1      0.00000000044953     0.00000000006251    -0.00000000320506
    2      0.00000000171530    -0.00000000101258     0.00000000026044
    3      0.00000000384618     0.00000000082231     0.00000000395706
    4      0.00000000165112    -0.00000000025281    -0.00000000048835
    5      0.00000000070367    -0.00000000165757    -0.00000000046327
    6     -0.00000000008107     0.00000000005098     0.00000000054786
    7     -0.00000000333252    -0.00000000061429    -0.00000000253240
    8     -0.00000000262260     0.00000000235019    -0.00000000161157
    9      0.00000000184263    -0.00000000006737    -0.00000000212203
   10      0.00000000077873    -0.00000000249605    -0.00000000069816
   11     -0.00000000663425    -0.00000000122233     0.00000000083071
   12     -0.00000000137428    -0.00000000392554    -0.00000000028105
   13     -0.00000000142233    -0.00000000147939     0.00000000273554
   14     -0.00000000119356     0.00000000501996    -0.00000000655264
   15      0.00000000181301     0.00000000281264    -0.00000000490239
   16      0.00000000501959     0.00000000226259     0.00000000042531
   17      0.00000000504174     0.00000000158403     0.00000000777585
   18     -0.00000000178126     0.00000000500811     0.00000000426432
   19      0.00000000353482     0.00000000308940    -0.00000000093550
   20      0.00000000061946    -0.00000000077443     0.00000000115638
   21     -0.00000000173746    -0.00000000078534     0.00000000349862
   22      0.00000000269914    -0.00000000165667     0.00000000047283
   23     -0.00000000095797    -0.00000000215771     0.00000000390671
   24     -0.00000000153334    -0.00000000431006     0.00000000408881
   25     -0.00000000193228     0.00000000106653     0.00000000167574
   26     -0.00000000290837     0.00000000288858     0.00000000086945
   27     -0.00000000245089    -0.00000000475004     0.00000000567541
   28      0.00000000028840    -0.00000000149242    -0.00000000069350
   29     -0.00000000328622    -0.00000000466359    -0.00000000407800
   30     -0.00000000120518     0.00000000124160     0.00000000040938
   31     -0.00000000084694     0.00000000115709     0.00000000133799
   32     -0.00000000694280    -0.00000000502119     0.00000000036746
   33      0.00000000171390    -0.00000000413117    -0.00000000175726
   34      0.00000000055807    -0.00000000374101    -0.00000000043012
   35      0.00000000309218    -0.00000000253665     0.00000000496940
   36      0.00000000269578    -0.00000000575813    -0.00000000080380
   37      0.00000000772222     0.00000000305969    -0.00000000361284
   38      0.00000000228418    -0.00000000132606     0.00000000017169
   39      0.00000000326397     0.00000000321892     0.00000000088201
   40     -0.00000000474786     0.00000000131146     0.00000000238496
   41      0.00000000027010     0.00000000226375    -0.00000000114674
   42     -0.00000000057081    -0.00000000152185    -0.00000000029252
   43      0.00000000214782    -0.00000000112798     0.00000000174880
   44     -0.00000000310003     0.00000000323810    -0.00000000051032
   45      0.00000000555989     0.00000000215073    -0.00000000105831
   46      0.00000000208651     0.00000000544259     0.00000000125900
   47     -0.00000000060596     0.00000000938106    -0.00000000071705
   48      0.00000000163362     0.00000000015809    -0.00000000284971
   49     -0.00000000210505    -0.00000000007755     0.00000000210827
   50      0.00000000034900    -0.00000000028784     0.00000000003318
   51     -0.00000000169206     0.00000000263511     0.00000000005093
   52      0.00000000206451    -0.00000000762454    -0.00000000470515
   53      0.00000000466619     0.00000000777239    -0.00000000684693
   54     -0.00000000617461     0.00000000307149    -0.00000000384054
   55      0.00000000243844     0.00000000040918     0.00000000612811
   56      0.00000000494845     0.00000000740402     0.00000000295742
   57     -0.00000000628025    -0.00000000243085    -0.00000000880218
   58      0.00000000110375     0.00000000301341    -0.00000000062449
   59      0.00000000103254     0.00000000042621     0.00000000310706
   60     -0.00000000184414    -0.00000000257654     0.00000000207873
   61     -0.00000000087726    -0.00000000227474     0.00000000106576
   62      0.00000000124141     0.00000000095686     0.00000000241421
   63      0.00000000092082    -0.00000000019924    -0.00000000223414
   64     -0.00000000254942     0.00000000232629     0.00000000614939
   65      0.00000000100117    -0.00000000303494    -0.00000000063026
   66     -0.00000000298906    -0.00000000067253     0.00000000235999
   67     -0.00000000308059     0.00000000347840    -0.00000000914870
   68     -0.00000000205434     0.00000000370986     0.00000000401364
   69      0.00000000687015    -0.00000000362880    -0.00000000297781
   70     -0.00000000041696     0.00000000240200    -0.00000000003138
   71     -0.00000000260229    -0.00000000233820    -0.00000000010959
   72      0.00000000466268    -0.00000000115405    -0.00000000067371
   73     -0.00000000103167    -0.00000000096502     0.00000000239361
   74      0.00000000083858     0.00000000139890     0.00000000327617
   75      0.00000000067407    -0.00000000227723    -0.00000000389316
   76     -0.00000000492789     0.00000000303228    -0.00000000165901
   77      0.00000000481602     0.00000000128220     0.00000000193160
   78      0.00000000434989    -0.00000000099345    -0.00000000596174
   79     -0.00000000095893     0.00000000138327     0.00000000001242
   80     -0.00000000113918    -0.00000000378220    -0.00000000116900
   81      0.00000000042321     0.00000000122640    -0.00000000333952
   82      0.00000000355646    -0.00000000328035     0.00000000024964
   83     -0.00000000099061     0.00000000058952    -0.00000000111328
   84     -0.00000000155829    -0.00000000245501     0.00000000069222
   85     -0.00000000470790    -0.00000000377376    -0.00000000199611
   86      0.00000000310188    -0.00000000072374     0.00000000094445
   87      0.00000000121226     0.00000000200141     0.00000000061099
   88     -0.00000000082249    -0.00000000155105     0.00000000133397
   89      0.00000000016911     0.00000000025979     0.00000000296153
   90     -0.00000000426978    -0.00000000015801     0.00000000001340
   91      0.00000000146584     0.00000000325862    -0.00000000127060
   92      0.00000000261120     0.00000000421769    -0.00000000212998
   93     -0.00000000273209    -0.00000000307388     0.00000000360947
   94      0.00000000488305    -0.00000000509357    -0.00000000443408
   95     -0.00000000195470     0.00000000112112     0.00000000526095
   96     -0.00000000344331    -0.00000000335500    -0.00000000208024
   97     -0.00000000669168    -0.00000000171931    -0.00000000135061
   98     -0.00000000624388     0.00000000300084     0.00000000188745
   99     -0.00000000056722    -0.00000000517607    -0.00000000199420
  100      0.00000000120423     0.00000000208766     0.00000000215576
  101      0.00000000022959     0.00000000264522     0.00000000075752
  102      0.00000000015451    -0.00000000218427    -0.00000000157325
  103      0.00000000175199     0.00000000103124     0.00000000059274
  104      0.00000000020102    -0.00000000043831    -0.00000000049007
 frms,max,avg= 3.0285910E-09 9.3810595E-09   1.713E-05 -5.844E-06 -1.962E-05 h/b
 
 cartesian forces (eV/Angstrom) at end:
    1      0.00000002311585     0.00000000321457    -0.00000016481082
    2      0.00000008820441    -0.00000005206905     0.00000001339242
    3      0.00000019777863     0.00000004228505     0.00000020348036
    4      0.00000008490376    -0.00000001300008    -0.00000002511195
    5      0.00000003618423    -0.00000008523575    -0.00000002382247
    6     -0.00000000416856     0.00000000262132     0.00000002817230
    7     -0.00000017136483    -0.00000003158823    -0.00000013022146
    8     -0.00000013485960     0.00000012085183    -0.00000008287036
    9      0.00000009475204    -0.00000000346411    -0.00000010911910
   10      0.00000004004365    -0.00000012835183    -0.00000003590102
   11     -0.00000034114684    -0.00000006285479     0.00000004271700
   12     -0.00000007066836    -0.00000020185922    -0.00000001445243
   13     -0.00000007313891    -0.00000007607307     0.00000014066719
   14     -0.00000006137534     0.00000025813652    -0.00000033695044
   15      0.00000009322849     0.00000014463182    -0.00000025209124
   16      0.00000025811752     0.00000011634701     0.00000002187031
   17      0.00000025925677     0.00000008145432     0.00000039985003
   18     -0.00000009159587     0.00000025752747     0.00000021928032
   19      0.00000018176766     0.00000015886325    -0.00000004810530
   20      0.00000003185394    -0.00000003982271     0.00000005946350
   21     -0.00000008934394    -0.00000004038374     0.00000017990646
   22      0.00000013879530    -0.00000008518916     0.00000002431399
   23     -0.00000004926099    -0.00000011095392     0.00000020089103
   24     -0.00000007884758    -0.00000022163236     0.00000021025485
   25     -0.00000009936193     0.00000005484301     0.00000008616985
   26     -0.00000014955416     0.00000014853661     0.00000004470878
   27     -0.00000012602973    -0.00000024425677     0.00000029184131
   28      0.00000001483027    -0.00000007674352    -0.00000003566099
   29     -0.00000016898406    -0.00000023981147    -0.00000020969926
   30     -0.00000006197287     0.00000006384582     0.00000002105140
   31     -0.00000004355152     0.00000005950017     0.00000006880232
   32     -0.00000035701332    -0.00000025820005     0.00000001889566
   33      0.00000008813207    -0.00000021243336    -0.00000009036215
   34      0.00000002869719    -0.00000019237049    -0.00000002211759
   35      0.00000015900639    -0.00000013044000     0.00000025553684
   36      0.00000013862247    -0.00000029609516    -0.00000004133307
   37      0.00000039709263     0.00000015733575    -0.00000018577980
   38      0.00000011745745    -0.00000006818892     0.00000000882848
   39      0.00000016784007     0.00000016552376     0.00000004535495
   40     -0.00000024414459     0.00000006743809     0.00000012263981
   41      0.00000001388925     0.00000011640660    -0.00000005896789
   42     -0.00000002935227    -0.00000007825681    -0.00000001504175
   43      0.00000011044552    -0.00000005800312     0.00000008992685
   44     -0.00000015941013     0.00000016650979    -0.00000002624182
   45      0.00000028590082     0.00000011059486    -0.00000005442055
   46      0.00000010729286     0.00000027986907     0.00000006474031
   47     -0.00000003115966     0.00000048239343    -0.00000003687233
   48      0.00000008400385     0.00000000812957    -0.00000014653796
   49     -0.00000010824583    -0.00000000398795     0.00000010841182
   50      0.00000001794627    -0.00000001480131     0.00000000170632
   51     -0.00000008700905     0.00000013550291     0.00000000261874
   52      0.00000010616126    -0.00000039206971    -0.00000024194834
   53      0.00000023994518     0.00000039967216    -0.00000035208316
   54     -0.00000031751097     0.00000015794215    -0.00000019748872
   55      0.00000012538965     0.00000002104110     0.00000031512004
   56      0.00000025445943     0.00000038072998     0.00000015207685
   57     -0.00000032294325    -0.00000012499939    -0.00000045262635
   58      0.00000005675720     0.00000015495550    -0.00000003211233
   59      0.00000005309541     0.00000002191669     0.00000015977121
   60     -0.00000009482948    -0.00000013249124     0.00000010689233
   61     -0.00000004511034    -0.00000011697178     0.00000005480378
   62      0.00000006383589     0.00000004920351     0.00000012414383
   63      0.00000004735062    -0.00000001024519    -0.00000011488396
   64     -0.00000013109645     0.00000011962238     0.00000031621437
   65      0.00000005148205    -0.00000015606277    -0.00000003240924
   66     -0.00000015370377    -0.00000003458268     0.00000012135534
   67     -0.00000015841011     0.00000017886646    -0.00000047044510
   68     -0.00000010563847     0.00000019076858     0.00000020638982
   69      0.00000035327753    -0.00000018660048    -0.00000015312490
   70     -0.00000002144076     0.00000012351605    -0.00000000161374
   71     -0.00000013381535    -0.00000012023493    -0.00000000563544
   72      0.00000023976470    -0.00000005934358    -0.00000003464379
   73     -0.00000005305046    -0.00000004962325     0.00000012308411
   74      0.00000004312149     0.00000007193419     0.00000016846756
   75      0.00000003466228    -0.00000011709986    -0.00000020019432
   76     -0.00000025340209     0.00000015592599    -0.00000008530981
   77      0.00000024764961     0.00000006593335     0.00000009932695
   78      0.00000022368055    -0.00000005108510    -0.00000030656515
   79     -0.00000004930997     0.00000007113044     0.00000000063892
   80     -0.00000005857898    -0.00000019448861    -0.00000006011234
   81      0.00000002176253     0.00000006306399    -0.00000017172487
   82      0.00000018288038    -0.00000016868220     0.00000001283715
   83     -0.00000005093927     0.00000003031427    -0.00000005724694
   84     -0.00000008013057    -0.00000012624182     0.00000003559539
   85     -0.00000024209003    -0.00000019405471    -0.00000010264408
   86      0.00000015950526    -0.00000003721610     0.00000004856537
   87      0.00000006233714     0.00000010291668     0.00000003141856
   88     -0.00000004229412    -0.00000007975804     0.00000006859551
   89      0.00000000869615     0.00000001335887     0.00000015228822
   90     -0.00000021956101    -0.00000000812533     0.00000000068896
   91      0.00000007537650     0.00000016756488    -0.00000006533690
   92      0.00000013427326     0.00000021688240    -0.00000010952783
   93     -0.00000014048989    -0.00000015806513     0.00000018560651
   94      0.00000025109665    -0.00000026192196    -0.00000022800973
   95     -0.00000010051470     0.00000005765046     0.00000027052872
   96     -0.00000017706202    -0.00000017252090    -0.00000010697030
   97     -0.00000034409999    -0.00000008841023    -0.00000006945091
   98     -0.00000032107311     0.00000015430936     0.00000009705633
   99     -0.00000002916761    -0.00000026616396    -0.00000010254599
  100      0.00000006192406     0.00000010735155     0.00000011085366
  101      0.00000001180596     0.00000013602259     0.00000003895348
  102      0.00000000794525    -0.00000011231988    -0.00000008089969
  103      0.00000009009076     0.00000005302866     0.00000003047996
  104      0.00000001033662    -0.00000002253901    -0.00000002520043
 frms,max,avg= 1.5573640E-07 4.8239343E-07   8.811E-04 -3.005E-04 -1.009E-03 e/A
 length scales=  1.000000000000  1.000000000000  1.000000000000 bohr
              =  0.529177208590  0.529177208590  0.529177208590 angstroms
 Fermi (or HOMO) energy (hartree) =   0.11595   Average Vxc (hartree)=  -0.38648
 Eigenvalues (hartree) for nkpt=   1  k points:
 kpt#   1, nband=420, wtk=  1.00000, kpt=  0.5000  0.5000  0.2500 (reduced coord)
  -2.13965   -2.13573   -2.13482   -2.13429   -2.13288   -2.13233   -2.13028   -2.12975
  -2.12956   -2.12923   -2.12922   -2.12920   -2.12879   -2.12780   -2.12577   -2.12208
  -1.19908   -1.19734   -1.19706   -1.19652   -1.19396   -1.19360   -1.19317   -1.19245
  -1.19237   -1.19229   -1.19208   -1.19096   -1.19077   -1.19014   -1.18972   -1.18946
  -1.18908   -1.18847   -1.18801   -1.18783   -1.18751   -1.18725   -1.18665   -1.18638
  -1.18599   -1.18580   -1.18552   -1.18537   -1.18501   -1.18434   -1.18413   -1.18344
  -1.18318   -1.18263   -1.18198   -1.18197   -1.18141   -1.18122   -1.18103   -1.18043
  -1.18010   -1.17993   -1.17987   -1.17821   -1.17717   -1.17599   -1.17577   -1.17415
  -0.99449   -0.98943   -0.98765   -0.98717   -0.98679   -0.98646   -0.98506   -0.98463
  -0.98335   -0.98202   -0.98162   -0.97745   -0.97205   -0.97190   -0.97101   -0.96809
  -0.53071   -0.52793   -0.52730   -0.52581   -0.52441   -0.52338   -0.52263   -0.52148
  -0.52061   -0.51959   -0.51800   -0.51732   -0.51497   -0.51392   -0.51226   -0.51108
  -0.51056   -0.50910   -0.50816   -0.50732   -0.50552   -0.50481   -0.50403   -0.50301
  -0.50180   -0.50104   -0.49984   -0.49915   -0.49873   -0.49789   -0.49671   -0.49649
  -0.49599   -0.49532   -0.49471   -0.49409   -0.49356   -0.49250   -0.49175   -0.49129
  -0.49047   -0.48954   -0.48911   -0.48853   -0.48764   -0.48720   -0.48616   -0.48568
  -0.48486   -0.48418   -0.48357   -0.48316   -0.48277   -0.48199   -0.48108   -0.48011
  -0.47962   -0.47872   -0.47808   -0.47637   -0.47480   -0.47385   -0.47274   -0.47184
  -0.47055   -0.46951   -0.46833   -0.46724   -0.46656   -0.46358   -0.46087   -0.45893
  -0.38992   -0.38891   -0.38764   -0.38623   -0.38526   -0.38481   -0.38396   -0.38298
  -0.38248   -0.38153   -0.38094   -0.37999   -0.37926   -0.37866   -0.37792   -0.37667
  -0.37626   -0.37564   -0.37488   -0.37393   -0.37342   -0.37206   -0.37179   -0.37038
  -0.36884   -0.36778   -0.36674   -0.36590   -0.36410   -0.36354   -0.36283   -0.36099
  -0.36044   -0.35834   -0.35733   -0.35509   -0.35261   -0.35043   -0.34953   -0.34856
  -0.34760   -0.34675   -0.34418   -0.34243   -0.34091   -0.33892   -0.33849   -0.33363
  -0.06847   -0.06562   -0.06438   -0.06281   -0.06147   -0.06091   -0.05958   -0.05900
  -0.05805   -0.05708   -0.05618   -0.05480   -0.05425   -0.05372   -0.05308   -0.05211
  -0.05072   -0.05047   -0.05001   -0.04921   -0.04854   -0.04821   -0.04718   -0.04628
  -0.04554   -0.04475   -0.04387   -0.04379   -0.04286   -0.04232   -0.04159   -0.04100
  -0.04003   -0.03918   -0.03885   -0.03789   -0.03751   -0.03672   -0.03606   -0.03557
  -0.03434   -0.03378   -0.03281   -0.03224   -0.03122   -0.03029   -0.02954   -0.02942
  -0.02871   -0.02841   -0.02745   -0.02698   -0.02658   -0.02595   -0.02554   -0.02476
  -0.02401   -0.02290   -0.02258   -0.02216   -0.02163   -0.02102   -0.02004   -0.01945
  -0.01899   -0.01809   -0.01775   -0.01705   -0.01584   -0.01521   -0.01503   -0.01398
  -0.01324   -0.01262   -0.01197   -0.01095   -0.00996   -0.00923   -0.00758   -0.00602
  -0.00438   -0.00039    0.00192    0.00308    0.00423    0.00507    0.00635    0.00881
   0.00961    0.01060    0.01138    0.01243    0.01452    0.01658    0.01747    0.01888
   0.02040    0.02160    0.02247    0.02364    0.02528    0.02599    0.02639    0.02695
   0.02752    0.02832    0.02957    0.03058    0.03161    0.03226    0.03368    0.03434
   0.03464    0.03574    0.03679    0.03778    0.03879    0.03988    0.04033    0.04140
   0.04184    0.04247    0.04356    0.04419    0.04484    0.04598    0.04673    0.04721
   0.04840    0.04870    0.05025    0.05063    0.05166    0.05194    0.05267    0.05334
   0.05472    0.05500    0.05626    0.05691    0.05705    0.05785    0.05823    0.05948
   0.06052    0.06100    0.06177    0.06254    0.06379    0.06408    0.06538    0.06567
   0.06692    0.06752    0.06836    0.06873    0.06993    0.07044    0.07126    0.07184
   0.07200    0.07310    0.07355    0.07418    0.07522    0.07610    0.07660    0.07750
   0.07803    0.07861    0.07980    0.08068    0.08100    0.08193    0.08301    0.08319
   0.08407    0.08417    0.08513    0.08604    0.08637    0.08683    0.08745    0.08800
   0.08904    0.08952    0.08982    0.09064    0.09144    0.09180    0.09237    0.09308
   0.09376    0.09435    0.09491    0.09523    0.09668    0.09731    0.09802    0.09861
   0.09945    0.10008    0.10082    0.10216    0.10278    0.10343    0.10372    0.10438
   0.10621    0.10765    0.10913    0.10998    0.11167    0.11319    0.11460    0.11595
   0.22697    0.22895    0.22997    0.23110

--- !EnergyTerms
iteration_state     : {dtset: 1, }
comment             : Components of total free energy in Hartree
kinetic             :  8.56399415560613E+02
hartree             :  7.38674307465069E+02
xc                  : -3.64872167102347E+02
Ewald energy        : -2.02146171202885E+03
psp_core            :  1.45288397953489E+02
local_psp           : -2.30955483091259E+03
spherical_terms     :  1.78099344744177E+02
total_energy        : -2.77742724432044E+03
total_energy_eV     : -7.55776388884256E+04
...


--- !EnergyTermsDC
iteration_state     : {dtset: 1, }
comment             : '"Double-counting" decomposition of free energy'
band_energy         : -3.09020061403044E+02
Ewald energy        : -2.02146171202885E+03
psp_core            :  1.45288397953489E+02
xc_dc               : -6.27218760403946E+02
spherical_terms     :  3.49848915619113E+01
total_energy_dc     : -2.77742724432044E+03
total_energy_dc_eV  : -7.55776388884256E+04
...

 
 Cartesian components of stress tensor (hartree/bohr^3)
  sigma(1 1)= -3.43942930E-12  sigma(3 2)= -5.77825570E-12
  sigma(2 2)= -8.68629127E-12  sigma(3 1)= -1.69945967E-05
  sigma(3 3)= -1.48924970E-12  sigma(2 1)= -1.88920460E-12
 
-Cartesian components of stress tensor (GPa)         [Pressure=  1.3352E-07 GPa]
- sigma(1 1)= -1.01191487E-07  sigma(3 2)= -1.70002123E-07
- sigma(2 2)= -2.55559469E-07  sigma(3 1)= -4.99998214E-01
- sigma(3 3)= -4.38152314E-08  sigma(2 1)= -5.55823089E-08
 
================================================================================
== DATASET  2 ==================================================================
-   mpi_nproc: 60, omp_nthreads: 1 (-1 if OMP is not activated)
 

--- !DatasetInfo
iteration_state: {dtset: 2, }
dimensions: {natom: 104, nkpt: 1, mband: 420, nsppol: 1, nspinor: 1, nspden: 1, mpw: 1298, }
cutoff_energies: {ecut:  30.0, pawecutdg:  30.0, }
electrons: {nelect:   8.32000000E+02, charge:   0.00000000E+00, occopt:   1.00000000E+00, tsmear:   1.00000000E-02, }
meta: {optdriver: 0, ionmov: 0, optcell: 0, iscf: 7, paral_kgb: 1, }
...

 mkfilename : getwfk/=0, take file _WFK from output of DATASET   1.
 
 Real(R)+Recip(G) space primitive vectors, cartesian coordinates (Bohr,Bohr^-1):
 R(1)= 26.9500866 -0.3614091 -0.4912829  G(1)=  0.0371247  0.0004770  0.0006936
 R(2)= -0.3533138 27.2026468  0.2016844  G(2)=  0.0004887  0.0367693 -0.0002413
 R(3)= -0.2533002  0.0919268 13.4952709  G(3)=  0.0013442 -0.0005321  0.0741289
 Unit cell volume ucvol=  9.8879942E+03 bohr^3
 Angles (23,13,12)=  8.91711760E+01  9.21246353E+01  9.15198872E+01 degrees
 
 Coarse grid specifications (used for wave-functions):
 
 getcut: wavevector=  0.0000  0.0000  0.0000  ngfft= 144 144  72
         ecut(hartree)=     30.000   => boxcut(ratio)=   2.14693
 
 Fine grid specifications (used for densities):
 
 getcut: wavevector=  0.0000  0.0000  0.0000  ngfft= 144 144  72
         ecut(hartree)=     30.000   => boxcut(ratio)=   2.14693
--------------------------------------------------------------------------------
 
-inwffil : will read wavefunctions from disk file abi-o_DS1_WFK
_setup2: Arith. and geom. avg. npw (full set) are    1298.000    1298.000
 
================================================================================

--- !BeginCycle
iteration_state: {dtset: 2, }
solver: {iscf: 7, nstep: 250, nline: 4, wfoptalg: 114, }
tolerances: {tolwfr: 1.00E-20, }
...
 
     iter   Etot(hartree)      deltaE(h)  residm     vres2
 ETOT  1  -2777.4272443204    -2.777E+03 7.197E-09 9.414E-20
 ETOT  2  -2777.4272443204     9.095E-13 6.970E-09 7.716E-20
 ETOT  3  -2777.4272443204     0.000E+00 6.929E-09 3.156E-21
 ETOT  4  -2777.4272443204     0.000E+00 7.449E-09 4.745E-22
 ETOT  5  -2777.4272443204     9.095E-13 8.668E-09 1.384E-21
 ETOT  6  -2777.4272443204     4.547E-13 8.020E-09 1.423E-21
 ETOT  7  -2777.4272443204    -4.547E-13 7.184E-09 1.201E-21
 ETOT  8  -2777.4272443204     0.000E+00 8.330E-09 8.747E-22
 ETOT  9  -2777.4272443204     4.547E-13 9.366E-09 7.554E-22
 ETOT 10  -2777.4272443204    -4.547E-13 8.111E-09 6.779E-22
 ETOT 11  -2777.4272443204     0.000E+00 8.281E-09 8.732E-22
 ETOT 12  -2777.4272443204    -4.547E-13 6.539E-09 1.595E-22
 ETOT 13  -2777.4272443204     4.547E-13 6.783E-09 1.270E-22
 ETOT 14  -2777.4272443204    -4.547E-13 8.002E-09 8.472E-23
 ETOT 15  -2777.4272443204     0.000E+00 7.844E-09 9.201E-23
 ETOT 16  -2777.4272443204     0.000E+00 8.643E-09 5.494E-23
 ETOT 17  -2777.4272443204     0.000E+00 7.679E-09 5.570E-23
 ETOT 18  -2777.4272443204    -4.547E-13 8.083E-09 4.327E-23
 ETOT 19  -2777.4272443204     4.547E-13 8.538E-09 3.703E-23
 ETOT 20  -2777.4272443204    -4.547E-13 6.986E-09 4.616E-23
 ETOT 21  -2777.4272443204     0.000E+00 7.554E-09 4.029E-23
 ETOT 22  -2777.4272443204    -4.547E-13 7.324E-09 3.738E-23
 ETOT 23  -2777.4272443204     1.819E-12 7.904E-09 3.482E-23
 ETOT 24  -2777.4272443204    -1.364E-12 8.620E-09 3.139E-23
 ETOT 25  -2777.4272443204     4.547E-13 7.166E-09 3.094E-23
 ETOT 26  -2777.4272443204    -4.547E-13 6.821E-09 2.912E-23
 ETOT 27  -2777.4272443204     4.547E-13 6.780E-09 3.701E-23
 ETOT 28  -2777.4272443204     0.000E+00 6.641E-09 3.144E-23
 ETOT 29  -2777.4272443204    -9.095E-13 6.027E-09 3.289E-23
 ETOT 30  -2777.4272443204     4.547E-13 6.706E-09 3.990E-23
 ETOT 31  -2777.4272443204     0.000E+00 7.144E-09 2.752E-23
 ETOT 32  -2777.4272443204     0.000E+00 5.948E-09 2.929E-23
 ETOT 33  -2777.4272443204     4.547E-13 6.311E-09 3.066E-23
 ETOT 34  -2777.4272443204     0.000E+00 6.216E-09 2.587E-23
 ETOT 35  -2777.4272443204     0.000E+00 5.649E-09 3.366E-23
 ETOT 36  -2777.4272443204     9.095E-13 5.674E-09 2.974E-23
 ETOT 37  -2777.4272443204    -9.095E-13 5.432E-09 2.897E-23
 ETOT 38  -2777.4272443204    -4.547E-13 5.875E-09 3.397E-23
 ETOT 39  -2777.4272443204     4.547E-13 5.751E-09 3.753E-23
 ETOT 40  -2777.4272443204    -4.547E-13 5.839E-09 2.990E-23
 ETOT 41  -2777.4272443204     0.000E+00 6.148E-09 3.437E-23
 ETOT 42  -2777.4272443204     4.547E-13 5.650E-09 2.868E-23
 ETOT 43  -2777.4272443204     4.547E-13 5.636E-09 2.767E-23
 ETOT 44  -2777.4272443204     0.000E+00 5.011E-09 5.412E-23
 ETOT 45  -2777.4272443204    -9.095E-13 5.207E-09 3.089E-23
 ETOT 46  -2777.4272443204     9.095E-13 5.391E-09 3.907E-23
 ETOT 47  -2777.4272443204    -9.095E-13 4.995E-09 3.387E-23
 ETOT 48  -2777.4272443204     9.095E-13 5.218E-09 3.667E-23
 ETOT 49  -2777.4272443204    -4.547E-13 4.716E-09 4.236E-23
 ETOT 50  -2777.4272443204    -4.547E-13 4.544E-09 3.175E-23
 ETOT 51  -2777.4272443204     0.000E+00 4.671E-09 3.172E-23
 ETOT 52  -2777.4272443204     4.547E-13 4.630E-09 3.000E-23
 ETOT 53  -2777.4272443204     4.547E-13 4.677E-09 4.108E-23
 ETOT 54  -2777.4272443204    -9.095E-13 4.558E-09 3.278E-23
 ETOT 55  -2777.4272443204     0.000E+00 4.453E-09 4.054E-23
 ETOT 56  -2777.4272443204     4.547E-13 4.293E-09 2.662E-23
 ETOT 57  -2777.4272443204     0.000E+00 4.330E-09 2.961E-23
 ETOT 58  -2777.4272443204    -4.547E-13 4.017E-09 3.138E-23
 ETOT 59  -2777.4272443204     9.095E-13 4.260E-09 2.823E-23
 ETOT 60  -2777.4272443204    -9.095E-13 4.448E-09 3.328E-23
 ETOT 61  -2777.4272443204     9.095E-13 3.746E-09 3.573E-23
 ETOT 62  -2777.4272443204     0.000E+00 4.025E-09 3.808E-23
 ETOT 63  -2777.4272443204    -4.547E-13 4.186E-09 3.187E-23
 ETOT 64  -2777.4272443204     0.000E+00 3.777E-09 3.733E-23
 ETOT 65  -2777.4272443204    -4.547E-13 3.559E-09 3.672E-23
 ETOT 66  -2777.4272443204     4.547E-13 3.341E-09 3.515E-23
 ETOT 67  -2777.4272443204    -4.547E-13 3.406E-09 3.317E-23
 ETOT 68  -2777.4272443204     0.000E+00 3.672E-09 3.362E-23
 ETOT 69  -2777.4272443204     4.547E-13 3.538E-09 3.295E-23
 ETOT 70  -2777.4272443204    -4.547E-13 3.264E-09 3.980E-23
 ETOT 71  -2777.4272443204     0.000E+00 3.466E-09 2.899E-23
 ETOT 72  -2777.4272443204     4.547E-13 3.295E-09 3.301E-23
 ETOT 73  -2777.4272443204     0.000E+00 3.326E-09 3.980E-23
 ETOT 74  -2777.4272443204     4.547E-13 3.101E-09 2.773E-23
 ETOT 75  -2777.4272443204    -9.095E-13 3.042E-09 3.646E-23
 ETOT 76  -2777.4272443204     1.364E-12 3.315E-09 4.541E-23
 ETOT 77  -2777.4272443204    -1.364E-12 2.627E-09 3.097E-23
 ETOT 78  -2777.4272443204     4.547E-13 2.635E-09 3.229E-23
 ETOT 79  -2777.4272443204     4.547E-13 2.902E-09 3.677E-23
 ETOT 80  -2777.4272443204    -4.547E-13 2.881E-09 3.444E-23
 ETOT 81  -2777.4272443204     0.000E+00 2.750E-09 3.091E-23
 ETOT 82  -2777.4272443204     4.547E-13 2.641E-09 3.305E-23
 ETOT 83  -2777.4272443204    -4.547E-13 2.581E-09 3.354E-23
 ETOT 84  -2777.4272443204    -4.547E-13 2.571E-09 2.795E-23
 ETOT 85  -2777.4272443204     4.547E-13 2.633E-09 3.151E-23
 ETOT 86  -2777.4272443204    -4.547E-13 2.646E-09 4.059E-23
 ETOT 87  -2777.4272443204     0.000E+00 2.437E-09 3.352E-23
 ETOT 88  -2777.4272443204     0.000E+00 2.613E-09 3.085E-23
 ETOT 89  -2777.4272443204     4.547E-13 2.623E-09 3.941E-23
 ETOT 90  -2777.4272443204     0.000E+00 2.367E-09 3.395E-23
 ETOT 91  -2777.4272443204    -4.547E-13 2.378E-09 2.891E-23
 ETOT 92  -2777.4272443204     0.000E+00 2.506E-09 3.226E-23
 ETOT 93  -2777.4272443204     4.547E-13 2.303E-09 3.412E-23
 ETOT 94  -2777.4272443204    -4.547E-13 2.425E-09 3.547E-23
 ETOT 95  -2777.4272443204     0.000E+00 2.085E-09 2.743E-23
 ETOT 96  -2777.4272443204     4.547E-13 2.406E-09 3.997E-23
 ETOT 97  -2777.4272443204     9.095E-13 2.183E-09 2.957E-23
 ETOT 98  -2777.4272443204    -1.364E-12 2.171E-09 3.506E-23
 ETOT 99  -2777.4272443204     0.000E+00 2.229E-09 3.126E-23
 ETOT  100  -2777.4272443204     0.000E+00 1.992E-09 3.496E-23
 ETOT  101  -2777.4272443204     0.000E+00 2.221E-09 4.245E-23
 ETOT  102  -2777.4272443204     0.000E+00 2.024E-09 3.374E-23
 ETOT  103  -2777.4272443204     0.000E+00 1.958E-09 5.106E-23
 ETOT  104  -2777.4272443204     4.547E-13 1.782E-09 3.790E-23
 ETOT  105  -2777.4272443204     4.547E-13 1.947E-09 2.939E-23
 ETOT  106  -2777.4272443204    -9.095E-13 2.059E-09 3.026E-23
 ETOT  107  -2777.4272443204     0.000E+00 2.139E-09 3.152E-23
 ETOT  108  -2777.4272443204     0.000E+00 2.029E-09 2.724E-23
 ETOT  109  -2777.4272443204     0.000E+00 1.889E-09 3.534E-23
 ETOT  110  -2777.4272443204     4.547E-13 1.864E-09 3.887E-23
 ETOT  111  -2777.4272443204     0.000E+00 1.881E-09 3.734E-23
 ETOT  112  -2777.4272443204    -4.547E-13 1.829E-09 3.396E-23
 ETOT  113  -2777.4272443204     0.000E+00 1.736E-09 3.420E-23
 ETOT  114  -2777.4272443204     4.547E-13 1.656E-09 3.567E-23
 ETOT  115  -2777.4272443204     0.000E+00 1.753E-09 3.630E-23
 ETOT  116  -2777.4272443204     4.547E-13 1.694E-09 3.086E-23
 ETOT  117  -2777.4272443204    -9.095E-13 1.586E-09 3.240E-23
 ETOT  118  -2777.4272443204     4.547E-13 1.529E-09 3.661E-23
 ETOT  119  -2777.4272443204    -4.547E-13 1.594E-09 3.864E-23
 ETOT  120  -2777.4272443204     1.364E-12 1.730E-09 2.927E-23
 ETOT  121  -2777.4272443204    -1.364E-12 1.509E-09 3.257E-23
 ETOT  122  -2777.4272443204     0.000E+00 1.649E-09 3.384E-23
 ETOT  123  -2777.4272443204     4.547E-13 1.655E-09 2.598E-23
 ETOT  124  -2777.4272443204    -9.095E-13 1.556E-09 2.884E-23
 ETOT  125  -2777.4272443204     9.095E-13 1.448E-09 3.849E-23
 ETOT  126  -2777.4272443204    -4.547E-13 1.531E-09 3.193E-23
 ETOT  127  -2777.4272443204     0.000E+00 1.571E-09 3.245E-23
 ETOT  128  -2777.4272443204    -4.547E-13 1.518E-09 3.073E-23
 ETOT  129  -2777.4272443204     9.095E-13 1.489E-09 3.320E-23
 ETOT  130  -2777.4272443204     0.000E+00 1.462E-09 2.950E-23
 ETOT  131  -2777.4272443204     0.000E+00 1.344E-09 3.170E-23
 ETOT  132  -2777.4272443204     0.000E+00 1.491E-09 3.103E-23
 ETOT  133  -2777.4272443204    -4.547E-13 1.378E-09 3.183E-23
 ETOT  134  -2777.4272443204     9.095E-13 1.413E-09 3.765E-23
 ETOT  135  -2777.4272443204    -1.364E-12 1.204E-09 2.957E-23
 ETOT  136  -2777.4272443204     9.095E-13 1.211E-09 3.696E-23
 ETOT  137  -2777.4272443204     0.000E+00 1.274E-09 3.197E-23
 ETOT  138  -2777.4272443204     0.000E+00 1.203E-09 3.658E-23
 ETOT  139  -2777.4272443204    -4.547E-13 1.200E-09 3.043E-23
 ETOT  140  -2777.4272443204     0.000E+00 1.290E-09 2.848E-23
 ETOT  141  -2777.4272443204     4.547E-13 1.224E-09 3.463E-23
 ETOT  142  -2777.4272443204     0.000E+00 1.160E-09 3.381E-23
 ETOT  143  -2777.4272443204     4.547E-13 1.133E-09 2.885E-23
 ETOT  144  -2777.4272443204    -4.547E-13 1.077E-09 3.118E-23
 ETOT  145  -2777.4272443204     4.547E-13 1.149E-09 3.325E-23
 ETOT  146  -2777.4272443204     9.095E-13 1.114E-09 2.866E-23
 ETOT  147  -2777.4272443204    -4.547E-13 1.117E-09 3.356E-23
 ETOT  148  -2777.4272443204    -1.364E-12 1.033E-09 3.628E-23
 ETOT  149  -2777.4272443204     1.364E-12 1.034E-09 2.809E-23
 ETOT  150  -2777.4272443204    -4.547E-13 1.028E-09 4.255E-23
 ETOT  151  -2777.4272443204    -9.095E-13 1.050E-09 3.971E-23
 ETOT  152  -2777.4272443204     4.547E-13 1.017E-09 3.199E-23
 ETOT  153  -2777.4272443204    -4.547E-13 1.018E-09 3.134E-23
 ETOT  154  -2777.4272443204     4.547E-13 9.357E-10 3.346E-23
 ETOT  155  -2777.4272443204    -4.547E-13 9.339E-10 4.154E-23
 ETOT  156  -2777.4272443204     0.000E+00 9.851E-10 3.357E-23
 ETOT  157  -2777.4272443204     4.547E-13 9.399E-10 4.209E-23
 ETOT  158  -2777.4272443204     0.000E+00 9.665E-10 4.072E-23
 ETOT  159  -2777.4272443204    -9.095E-13 9.098E-10 3.305E-23
 ETOT  160  -2777.4272443204     9.095E-13 8.953E-10 3.704E-23
 ETOT  161  -2777.4272443204    -4.547E-13 9.339E-10 3.359E-23
 ETOT  162  -2777.4272443204     1.364E-12 9.148E-10 3.779E-23
 ETOT  163  -2777.4272443204    -4.547E-13 8.819E-10 3.029E-23
 ETOT  164  -2777.4272443204    -4.547E-13 9.227E-10 3.453E-23
 ETOT  165  -2777.4272443204    -4.547E-13 8.606E-10 3.539E-23
 ETOT  166  -2777.4272443204     0.000E+00 8.914E-10 3.418E-23
 ETOT  167  -2777.4272443204     4.547E-13 8.725E-10 2.991E-23
 ETOT  168  -2777.4272443204    -4.547E-13 7.796E-10 2.876E-23
 ETOT  169  -2777.4272443204     4.547E-13 8.176E-10 3.889E-23
 ETOT  170  -2777.4272443204     4.547E-13 8.024E-10 3.114E-23
 ETOT  171  -2777.4272443204     4.547E-13 7.882E-10 3.454E-23
 ETOT  172  -2777.4272443204    -9.095E-13 7.749E-10 4.556E-23
 ETOT  173  -2777.4272443204    -4.547E-13 7.849E-10 3.056E-23
 ETOT  174  -2777.4272443204    -4.547E-13 7.676E-10 3.529E-23
 ETOT  175  -2777.4272443204     9.095E-13 7.804E-10 4.315E-23
 ETOT  176  -2777.4272443204    -4.547E-13 7.503E-10 3.628E-23
 ETOT  177  -2777.4272443204     4.547E-13 7.474E-10 3.027E-23
 ETOT  178  -2777.4272443204     0.000E+00 7.024E-10 3.581E-23
 ETOT  179  -2777.4272443204     0.000E+00 7.069E-10 3.156E-23
 ETOT  180  -2777.4272443204     4.547E-13 7.393E-10 3.467E-23
 ETOT  181  -2777.4272443204    -4.547E-13 6.980E-10 2.845E-23
 ETOT  182  -2777.4272443204     4.547E-13 6.547E-10 3.254E-23
 ETOT  183  -2777.4272443204    -9.095E-13 6.891E-10 3.520E-23
 ETOT  184  -2777.4272443204     0.000E+00 6.848E-10 3.597E-23
 ETOT  185  -2777.4272443204     9.095E-13 6.625E-10 3.411E-23
 ETOT  186  -2777.4272443204    -4.547E-13 6.700E-10 3.475E-23
 ETOT  187  -2777.4272443204    -4.547E-13 6.220E-10 3.247E-23
 ETOT  188  -2777.4272443204     4.547E-13 6.182E-10 2.856E-23
 ETOT  189  -2777.4272443204    -4.547E-13 6.005E-10 4.041E-23
 ETOT  190  -2777.4272443204     9.095E-13 6.131E-10 3.242E-23
 ETOT  191  -2777.4272443204    -9.095E-13 5.841E-10 3.258E-23
 ETOT  192  -2777.4272443204     4.547E-13 6.027E-10 5.377E-23
 ETOT  193  -2777.4272443204    -9.095E-13 6.089E-10 3.258E-23
 ETOT  194  -2777.4272443204     4.547E-13 6.247E-10 3.571E-23
 ETOT  195  -2777.4272443204     0.000E+00 5.612E-10 4.097E-23
 ETOT  196  -2777.4272443204     4.547E-13 5.786E-10 3.361E-23
 ETOT  197  -2777.4272443204     0.000E+00 5.518E-10 3.075E-23
 ETOT  198  -2777.4272443204    -4.547E-13 5.471E-10 4.515E-23
 ETOT  199  -2777.4272443204     9.095E-13 5.708E-10 2.969E-23
 ETOT  200  -2777.4272443204    -4.547E-13 5.602E-10 3.309E-23
 ETOT  201  -2777.4272443204     0.000E+00 5.692E-10 3.314E-23
 ETOT  202  -2777.4272443204    -4.547E-13 5.538E-10 3.845E-23
 ETOT  203  -2777.4272443204     0.000E+00 5.476E-10 3.394E-23
 ETOT  204  -2777.4272443204    -4.547E-13 5.313E-10 4.432E-23
 ETOT  205  -2777.4272443204     4.547E-13 5.033E-10 3.891E-23
 ETOT  206  -2777.4272443204     1.364E-12 5.205E-10 4.224E-23
 ETOT  207  -2777.4272443204    -4.547E-13 5.140E-10 3.248E-23
 ETOT  208  -2777.4272443204    -9.095E-13 5.115E-10 3.954E-23
 ETOT  209  -2777.4272443204     4.547E-13 5.212E-10 4.108E-23
 ETOT  210  -2777.4272443204     0.000E+00 5.095E-10 3.114E-23
 ETOT  211  -2777.4272443204     4.547E-13 4.822E-10 3.266E-23
 ETOT  212  -2777.4272443204    -1.819E-12 5.004E-10 3.250E-23
 ETOT  213  -2777.4272443204     1.364E-12 4.967E-10 4.876E-23
 ETOT  214  -2777.4272443204    -4.547E-13 4.743E-10 4.214E-23
 ETOT  215  -2777.4272443204     9.095E-13 4.610E-10 3.689E-23
 ETOT  216  -2777.4272443204     0.000E+00 4.490E-10 3.260E-23
 ETOT  217  -2777.4272443204     0.000E+00 4.588E-10 3.268E-23
 ETOT  218  -2777.4272443204    -9.095E-13 4.448E-10 3.367E-23
 ETOT  219  -2777.4272443204     9.095E-13 4.728E-10 4.333E-23
 ETOT  220  -2777.4272443204     0.000E+00 4.583E-10 3.395E-23
 ETOT  221  -2777.4272443204    -9.095E-13 4.500E-10 4.240E-23
 ETOT  222  -2777.4272443204     1.364E-12 4.594E-10 3.223E-23
 ETOT  223  -2777.4272443204    -4.547E-13 4.571E-10 3.351E-23
 ETOT  224  -2777.4272443204     4.547E-13 4.397E-10 3.342E-23
 ETOT  225  -2777.4272443204    -4.547E-13 4.099E-10 3.757E-23
 ETOT  226  -2777.4272443204     0.000E+00 4.028E-10 3.567E-23
 ETOT  227  -2777.4272443204    -9.095E-13 3.908E-10 4.991E-23
 ETOT  228  -2777.4272443204     9.095E-13 4.027E-10 5.623E-23
 ETOT  229  -2777.4272443204     4.547E-13 3.932E-10 3.297E-23
 ETOT  230  -2777.4272443204    -9.095E-13 3.842E-10 3.823E-23
 ETOT  231  -2777.4272443204     0.000E+00 3.838E-10 3.002E-23
 ETOT  232  -2777.4272443204    -4.547E-13 3.790E-10 4.368E-23
 ETOT  233  -2777.4272443204     4.547E-13 4.010E-10 2.966E-23
 ETOT  234  -2777.4272443204     0.000E+00 3.775E-10 2.946E-23
 ETOT  235  -2777.4272443204    -4.547E-13 3.724E-10 3.547E-23
 ETOT  236  -2777.4272443204     0.000E+00 3.814E-10 3.845E-23
 ETOT  237  -2777.4272443204     4.547E-13 3.753E-10 3.961E-23
 ETOT  238  -2777.4272443204    -4.547E-13 3.974E-10 3.631E-23
 ETOT  239  -2777.4272443204     9.095E-13 3.801E-10 3.500E-23
 ETOT  240  -2777.4272443204    -9.095E-13 3.664E-10 3.647E-23
 ETOT  241  -2777.4272443204     0.000E+00 3.608E-10 4.077E-23
 ETOT  242  -2777.4272443204     0.000E+00 3.516E-10 4.575E-23
 ETOT  243  -2777.4272443204     9.095E-13 3.575E-10 3.850E-23
 ETOT  244  -2777.4272443204    -4.547E-13 3.529E-10 3.340E-23
 ETOT  245  -2777.4272443204    -4.547E-13 3.498E-10 4.041E-23
 ETOT  246  -2777.4272443204     0.000E+00 3.298E-10 4.105E-23
 ETOT  247  -2777.4272443204    -4.547E-13 3.352E-10 4.217E-23
 ETOT  248  -2777.4272443204     1.364E-12 3.280E-10 3.858E-23
 ETOT  249  -2777.4272443204     4.547E-13 3.220E-10 3.776E-23
 ETOT  250  -2777.4272443204    -4.547E-13 3.120E-10 3.708E-23
 
 Cartesian components of stress tensor (hartree/bohr^3)
  sigma(1 1)= -3.43937205E-12  sigma(3 2)= -5.77827434E-12
  sigma(2 2)= -8.68621841E-12  sigma(3 1)= -1.69945967E-05
  sigma(3 3)= -1.48921847E-12  sigma(2 1)= -1.88920751E-12
 
 
 scprqt:  WARNING -
  nstep=  250 was not enough SCF cycles to converge;
  maximum residual=  3.120E-10 exceeds tolwfr=  1.000E-20
 

--- !ResultsGS
iteration_state: {dtset: 2, }
comment   : Summary of ground state results
lattice_vectors:
- [ 26.9500866,  -0.3614091,  -0.4912829, ]
- [ -0.3533138,  27.2026468,   0.2016844, ]
- [ -0.2533002,   0.0919268,  13.4952709, ]
lattice_lengths: [  26.95699,   27.20569,   13.49796, ]
lattice_angles: [ 89.171,  92.125,  91.520, ] # degrees, (23, 13, 12)
lattice_volume:   9.8879942E+03
convergence: {deltae: -4.547E-13, res2:  3.708E-23, residm:  3.120E-10, diffor: null, }
etotal    :  -2.77742724E+03
entropy   :   0.00000000E+00
fermie    :   1.15951669E-01
cartesian_stress_tensor: # hartree/bohr^3
- [ -3.43937205E-12,  -1.88920751E-12,  -1.69945967E-05, ]
- [ -1.88920751E-12,  -8.68621841E-12,  -5.77827434E-12, ]
- [ -1.69945967E-05,  -5.77827434E-12,  -1.48921847E-12, ]
pressure_GPa:   1.3352E-07
xred      :
- [  4.3432E-01,   4.4327E-01,   8.2687E-01, La]
- [  1.4790E-01,   3.0274E-01,   1.2112E-01, La]
- [  9.8882E-02,   1.6687E-01,   5.9529E-01, La]
- [  3.2026E-01,   6.5087E-02,   3.4716E-01, La]
- [  9.1022E-01,   4.4403E-01,   8.7509E-01, La]
- [  6.6119E-01,   3.4604E-01,   1.5900E-01, La]
- [  5.6457E-01,   2.0101E-01,   6.8037E-01, La]
- [  8.2695E-01,   7.9511E-02,   3.6760E-01, La]
- [  4.2900E-01,   9.3409E-01,   8.2605E-01, La]
- [  1.7703E-01,   8.3085E-01,   1.3898E-01, La]
- [  8.5170E-02,   6.6969E-01,   5.6403E-01, La]
- [  3.1726E-01,   5.7641E-01,   3.4818E-01, La]
- [  9.0270E-01,   9.4202E-01,   8.5656E-01, La]
- [  6.4744E-01,   8.1511E-01,   1.6994E-01, La]
- [  5.5458E-01,   6.8318E-01,   6.4191E-01, La]
- [  8.1785E-01,   5.7606E-01,   3.5148E-01, La]
- [  8.7554E-02,   6.2208E-02,   1.5656E-01, Mo]
- [  3.2591E-01,   1.7632E-01,   7.8948E-01, Mo]
- [  4.0113E-01,   3.2613E-01,   3.1915E-01, Mo]
- [  1.5818E-01,   4.0209E-01,   6.5531E-01, Mo]
- [  5.9913E-01,   9.8783E-02,   2.0757E-01, Mo]
- [  8.5482E-01,   1.8030E-01,   8.3980E-01, Mo]
- [  9.1532E-01,   3.3274E-01,   3.2257E-01, Mo]
- [  6.7570E-01,   4.2629E-01,   6.9719E-01, Mo]
- [  8.3440E-02,   5.3848E-01,   1.7730E-01, Mo]
- [  3.2589E-01,   6.6359E-01,   8.2132E-01, Mo]
- [  4.1495E-01,   8.4757E-01,   2.9420E-01, Mo]
- [  1.3764E-01,   8.9418E-01,   6.8276E-01, Mo]
- [  5.7799E-01,   5.7949E-01,   1.9716E-01, Mo]
- [  8.4456E-01,   6.8185E-01,   8.3051E-01, Mo]
- [  9.0400E-01,   8.2657E-01,   3.2959E-01, Mo]
- [  6.7222E-01,   9.3093E-01,   6.9876E-01, Mo]
- [  7.3276E-02,   3.6112E-01,   8.1936E-01,  O]
- [  1.7015E-01,   1.5381E-01,   2.7656E-01,  O]
- [  3.4798E-01,   3.5308E-01,   9.8931E-02,  O]
- [  4.2091E-01,   9.8855E-02,   6.8331E-01,  O]
- [  5.8345E-01,   3.5025E-01,   8.3450E-01,  O]
- [  6.5993E-01,   1.5212E-01,   4.0179E-01,  O]
- [  8.4777E-01,   4.2555E-01,   2.0373E-01,  O]
- [  9.2433E-01,   1.4935E-01,   6.4492E-01,  O]
- [  7.2745E-02,   8.0676E-01,   8.0224E-01,  O]
- [  1.5584E-01,   6.4155E-01,   2.6256E-01,  O]
- [  3.3965E-01,   9.2139E-01,   1.3158E-01,  O]
- [  4.1023E-01,   5.9024E-01,   6.6922E-01,  O]
- [  5.7704E-01,   8.4712E-01,   7.6379E-01,  O]
- [  6.5553E-01,   6.5791E-01,   3.5584E-01,  O]
- [  8.7321E-01,   9.3117E-01,   2.1027E-01,  O]
- [  9.1655E-01,   6.4626E-01,   6.4369E-01,  O]
- [  7.3949E-02,   1.4084E-01,   9.5730E-01,  O]
- [  9.9664E-01,   7.2005E-02,   3.1652E-01,  O]
- [  1.8046E-01,   9.8378E-01,   2.6470E-01,  O]
- [  3.9305E-01,   4.2450E-01,   4.6542E-01,  O]
- [  3.3505E-01,   2.3327E-01,   4.1129E-01,  O]
- [  5.1685E-01,   2.8097E-01,   3.1996E-01,  O]
- [  3.3273E-01,   1.3064E-01,   1.7863E-02,  O]
- [  4.1308E-01,   2.7159E-01,   7.6341E-01,  O]
- [  2.4445E-01,   9.8639E-02,   6.3816E-01,  O]
- [  2.6432E-01,   4.4128E-01,   7.6027E-01,  O]
- [  1.6959E-01,   3.2311E-01,   4.6978E-01,  O]
- [  1.1074E-01,   5.0214E-01,   5.4635E-01,  O]
- [  1.7444E-02,   4.1498E-01,   1.6865E-01,  O]
- [  9.2030E-01,   3.7079E-01,   5.5416E-01,  O]
- [  8.2055E-01,   2.4670E-01,   3.0014E-01,  O]
- [  4.8584E-01,   6.0877E-02,   2.6189E-01,  O]
- [  5.9908E-01,   1.8085E-01,   1.0183E+00,  O]
- [  6.7295E-01,   1.0064E+00,   1.6471E-01,  O]
- [  7.5192E-01,   3.9110E-01,   9.0082E-01,  O]
- [  6.6804E-01,   3.4888E-01,   5.0703E-01,  O]
- [  5.9015E-01,   5.1648E-01,   6.8923E-01,  O]
- [  8.5433E-01,   9.0364E-02,   1.3814E-02,  O]
- [  9.0547E-01,   2.7935E-01,   9.5009E-01,  O]
- [  7.4112E-01,   2.0501E-01,   7.6316E-01,  O]
- [  3.5479E-01,   5.8233E-01,   1.0289E-02,  O]
- [  4.0567E-01,   7.6125E-01,   7.9793E-01,  O]
- [  2.4432E-01,   6.3984E-01,   6.1404E-01,  O]
- [  1.9137E-01,   4.6962E-01,   1.9358E-01,  O]
- [  5.2344E-02,   5.6438E-01,   9.4071E-01,  O]
- [  9.8755E-01,   5.7952E-01,   3.2016E-01,  O]
- [  3.8957E-01,   9.1905E-01,   4.9266E-01,  O]
- [  3.3488E-01,   7.5052E-01,   2.8344E-01,  O]
- [  5.0322E-01,   8.7744E-01,   1.0203E-01,  O]
- [  6.4520E-02,  -8.9328E-03,   6.3950E-01,  O]
- [  2.3952E-01,   9.1861E-01,   8.2187E-01,  O]
- [  1.6891E-01,   8.2744E-01,   4.8666E-01,  O]
- [  6.8281E-01,   5.0215E-01,   2.3012E-01,  O]
- [  4.8358E-01,   6.0460E-01,   3.4470E-01,  O]
- [  5.7870E-01,   6.5972E-01,   1.0034E+00,  O]
- [  8.4071E-01,   5.9014E-01,  -1.0271E-03,  O]
- [  8.9441E-01,   7.7902E-01,   9.4725E-01,  O]
- [  7.3121E-01,   7.0413E-01,   7.4445E-01,  O]
- [  5.9743E-01,   2.8473E-02,   7.2395E-01,  O]
- [  7.4251E-01,   8.8927E-01,   9.0294E-01,  O]
- [  6.8620E-01,   8.8684E-01,   4.6866E-01,  O]
- [  1.6182E-02,   7.8313E-01,   2.8728E-01,  O]
- [  9.0524E-01,   8.4987E-01,   5.6944E-01,  O]
- [  8.1276E-01,   7.4338E-01,   2.8142E-01,  O]
- [  5.4787E-02,  -4.5039E-02,   2.5653E-02,  O]
- [  2.2181E-01,   2.5192E-01,   8.0539E-01,  O]
- [  1.0140E+00,   2.5628E-01,   3.1482E-01,  O]
- [  7.7932E-01,   5.0084E-01,   6.3803E-01,  O]
- [  2.3134E-01,   7.1930E-01,   9.3037E-01,  O]
- [  5.1951E-01,   7.9160E-01,   3.9605E-01,  O]
- [  5.2242E-01,   4.6689E-01,   1.1681E-01,  O]
- [  7.8804E-01,   1.0119E+00,   6.5319E-01,  O]
cartesian_forces: # hartree/bohr
- [  4.49485267E-10,   6.24991164E-11,  -3.20507870E-09, ]
- [  1.71530172E-09,  -1.01258222E-09,   2.60441510E-10, ]
- [  3.84619128E-09,   8.22312555E-10,   3.95705434E-09, ]
- [  1.65112035E-09,  -2.52770888E-10,  -4.88358312E-10, ]
- [  7.03685142E-10,  -1.65758797E-09,  -4.63288931E-10, ]
- [ -8.10594026E-11,   5.09531194E-11,   5.47896647E-10, ]
- [ -3.33250836E-09,  -6.14293205E-10,  -2.53240594E-09, ]
- [ -2.62261920E-09,   2.35019139E-09,  -1.61158569E-09, ]
- [  1.84263291E-09,  -6.73310786E-11,  -2.12201059E-09, ]
- [  7.78703830E-10,  -2.49605456E-09,  -6.98185505E-10, ]
- [ -6.63424602E-09,  -1.22232391E-09,   8.30710957E-10, ]
- [ -1.37430502E-09,  -3.92549425E-09,  -2.81030275E-10, ]
- [ -1.42230153E-09,  -1.47941905E-09,   2.73551860E-09, ]
- [ -1.19358962E-09,   5.01995803E-09,  -6.55264430E-09, ]
- [  1.81303521E-09,   2.81265918E-09,  -4.90240368E-09, ]
- [  5.01957638E-09,   2.26261784E-09,   4.25337493E-10, ]
- [  5.04173110E-09,   1.58412714E-09,   7.77581648E-09, ]
- [ -1.78131803E-09,   5.00814044E-09,   4.26430758E-09, ]
- [  3.53496372E-09,   3.08951325E-09,  -9.35483484E-10, ]
- [  6.19428946E-10,  -7.74493653E-10,   1.15645162E-09, ]
- [ -1.73739748E-09,  -7.85232284E-10,   3.49860347E-09, ]
- [  2.69931042E-09,  -1.65683032E-09,   4.72779895E-10, ]
- [ -9.58022190E-10,  -2.15765029E-09,   3.90669114E-09, ]
- [ -1.53339854E-09,  -4.31005182E-09,   4.08896040E-09, ]
- [ -1.93220796E-09,   1.06643917E-09,   1.67569530E-09, ]
- [ -2.90820577E-09,   2.88847739E-09,   8.69428857E-10, ]
- [ -2.45088450E-09,  -4.74995388E-09,   5.67550589E-09, ]
- [  2.88370811E-10,  -1.49239615E-09,  -6.93573647E-10, ]
- [ -3.28622528E-09,  -4.66371295E-09,  -4.07802998E-09, ]
- [ -1.20502921E-09,   1.24138785E-09,   4.09412452E-10, ]
- [ -8.46993181E-10,   1.15712712E-09,   1.33800589E-09, ]
- [ -6.94270152E-09,  -5.02115016E-09,   3.67484698E-10, ]
- [  1.71386405E-09,  -4.13118313E-09,  -1.75725334E-09, ]
- [  5.58063807E-10,  -3.74099919E-09,  -4.30118541E-10, ]
- [  3.09218702E-09,  -2.53664841E-09,   4.96944755E-09, ]
- [  2.69577509E-09,  -5.75813808E-09,  -8.03813156E-10, ]
- [  7.72222037E-09,   3.05969790E-09,  -3.61284080E-09, ]
- [  2.28417643E-09,  -1.32606733E-09,   1.71674010E-10, ]
- [  3.26392120E-09,   3.21895267E-09,   8.82004327E-10, ]
- [ -4.74786539E-09,   1.31145443E-09,   2.38494181E-09, ]
- [  2.70078864E-10,   2.26373194E-09,  -1.14673356E-09, ]
- [ -5.70825941E-10,  -1.52186259E-09,  -2.92517438E-10, ]
- [  2.14783183E-09,  -1.12800152E-09,   1.74880421E-09, ]
- [ -3.10002150E-09,   3.23809562E-09,  -5.10342304E-10, ]
- [  5.55985757E-09,   2.15071726E-09,  -1.05831261E-09, ]
- [  2.08650111E-09,   5.44259343E-09,   1.25900304E-09, ]
- [ -6.05951272E-10,   9.38104985E-09,  -7.17038361E-10, ]
- [  1.63364563E-09,   1.58090574E-10,  -2.84972704E-09, ]
- [ -2.10505155E-09,  -7.75540800E-11,   2.10827153E-09, ]
- [  3.48988552E-10,  -2.87837678E-10,   3.32017310E-11, ]
- [ -1.69204831E-09,   2.63511126E-09,   5.09314837E-11, ]
- [  2.06450717E-09,  -7.62455266E-09,  -4.70517008E-09, ]
- [  4.66619429E-09,   7.77241380E-09,  -6.84695268E-09, ]
- [ -6.17463263E-09,   3.07149068E-09,  -3.84055196E-09, ]
- [  2.43842423E-09,   4.09188975E-10,   6.12811814E-09, ]
- [  4.94843869E-09,   7.40402203E-09,   2.95742013E-09, ]
- [ -6.28026892E-09,  -2.43085628E-09,  -8.80218660E-09, ]
- [  1.10375320E-09,   3.01340140E-09,  -6.24473066E-10, ]
- [  1.03253454E-09,   4.26216064E-10,   3.10705554E-09, ]
- [ -1.84414379E-09,  -2.57654083E-09,   2.07872163E-09, ]
- [ -8.77257151E-10,  -2.27474224E-09,   1.06577935E-09, ]
- [  1.24141283E-09,   9.56867022E-10,   2.41421941E-09, ]
- [  9.20806781E-10,  -1.99245342E-10,  -2.23414940E-09, ]
- [ -2.54940753E-09,   2.32629219E-09,   6.14938427E-09, ]
- [  1.00116312E-09,  -3.03493790E-09,  -6.30264476E-10, ]
- [ -2.98906967E-09,  -6.72507091E-10,   2.36001455E-09, ]
- [ -3.08059990E-09,   3.47841638E-09,  -9.14869544E-09, ]
- [ -2.05435129E-09,   3.70986264E-09,   4.01365807E-09, ]
- [  6.87014801E-09,  -3.62880722E-09,  -2.97780399E-09, ]
- [ -4.16957013E-10,   2.40199797E-09,  -3.13948647E-11, ]
- [ -2.60230945E-09,  -2.33820676E-09,  -1.09606253E-10, ]
- [  4.66270839E-09,  -1.15405444E-09,  -6.73694729E-10, ]
- [ -1.03167516E-09,  -9.65031977E-10,   2.39361974E-09, ]
- [  8.38601149E-10,   1.39891157E-09,   3.27617763E-09, ]
- [  6.74067052E-10,  -2.27724063E-09,  -3.89318971E-09, ]
- [ -4.92787593E-09,   3.03227255E-09,  -1.65902119E-09, ]
- [  4.81600515E-09,   1.28219681E-09,   1.93159994E-09, ]
- [  4.34988138E-09,  -9.93441693E-10,  -5.96173431E-09, ]
- [ -9.58941984E-10,   1.38325353E-09,   1.24006938E-11, ]
- [ -1.13915484E-09,  -3.78216609E-09,  -1.16900605E-09, ]
- [  4.23180813E-10,   1.22638604E-09,  -3.33950283E-09, ]
- [  3.55643671E-09,  -3.28032886E-09,   2.49648970E-10, ]
- [ -9.90613713E-10,   5.89522151E-10,  -1.11328554E-09, ]
- [ -1.55830566E-09,  -2.45503148E-09,   6.92202799E-10, ]
- [ -4.70791669E-09,  -3.77375721E-09,  -1.99610786E-09, ]
- [  3.10186608E-09,  -7.23745357E-10,   9.44441696E-10, ]
- [  1.21226582E-09,   2.00142000E-09,   6.10986739E-10, ]
- [ -8.22526159E-10,  -1.55108440E-09,   1.33399425E-09, ]
- [  1.69108480E-10,   2.59796295E-10,   2.96155859E-09, ]
- [ -4.26981286E-09,  -1.58013216E-10,   1.33948715E-11, ]
- [  1.46582655E-09,   3.25861899E-09,  -1.27061249E-09, ]
- [  2.61122255E-09,   4.21770022E-09,  -2.12997022E-09, ]
- [ -2.73209689E-09,  -3.07387901E-09,   3.60946114E-09, ]
- [  4.88304129E-09,  -5.09356850E-09,  -4.43408123E-09, ]
- [ -1.95470703E-09,   1.12114743E-09,   5.26092823E-09, ]
- [ -3.44333245E-09,  -3.35500602E-09,  -2.08024434E-09, ]
- [ -6.69168738E-09,  -1.71929490E-09,  -1.35060543E-09, ]
- [ -6.24388710E-09,   3.00083627E-09,   1.88744149E-09, ]
- [ -5.67223317E-10,  -5.17606043E-09,  -1.99420891E-09, ]
- [  1.20422890E-09,   2.08766515E-09,   2.15575927E-09, ]
- [  2.29561698E-10,   2.64522652E-09,   7.57524583E-10, ]
- [  1.54477430E-10,  -2.18425482E-09,  -1.57326830E-09, ]
- [  1.75199012E-09,   1.03124558E-09,   5.92752526E-10, ]
- [  2.01030274E-10,  -4.38290777E-10,  -4.90089081E-10, ]
force_length_stats: {min:   4.53592210E-10, max:   1.13606578E-08, mean:   4.65262571E-09, }
...

 Integrated electronic density in atomic spheres:
 ------------------------------------------------
 Atom  Sphere_radius  Integrated_density
    1        2.51647          7.86251542
    2        2.51647          7.84656974
    3        2.51647          7.86430365
    4        2.51647          7.90821895
    5        2.51647          7.87502773
    6        2.51647          7.87067784
    7        2.51647          7.84093360
    8        2.51647          7.86230910
    9        2.51647          7.83723320
   10        2.51647          7.84803566
   11        2.51647          7.88349951
   12        2.51647          7.85922152
   13        2.51647          7.90195345
   14        2.51647          7.85804469
   15        2.51647          7.86297711
   16        2.51647          7.92019031
   17        2.20000         11.39625912
   18        2.20000         11.34640371
   19        2.20000         11.56823463
   20        2.20000         11.56497274
   21        2.20000         11.60608925
   22        2.20000         11.55282540
   23        2.20000         11.40964540
   24        2.20000         11.41087349
   25        2.20000         11.33360721
   26        2.20000         11.38596452
   27        2.20000         11.39947152
   28        2.20000         11.56313810
   29        2.20000         11.38982918
   30        2.20000         11.56729709
   31        2.20000         11.58407437
   32        2.20000         11.36088377
   33        1.41465          4.55294439
   34        1.41465          4.55912240
   35        1.41465          4.55226737
   36        1.41465          4.52494913
   37        1.41465          4.54787339
   38        1.41465          4.55848193
   39        1.41465          4.56296849
   40        1.41465          4.55410116
   41        1.41465          4.53705320
   42        1.41465          4.53171980
   43        1.41465          4.54269771
   44        1.41465          4.57201481
   45        1.41465          4.55495111
   46        1.41465          4.53685476
   47        1.41465          4.55470724
   48        1.41465          4.55960838
   49        1.41465          4.53714639
   50        1.41465          4.54391786
   51        1.41465          4.57978696
   52        1.41465          4.53805148
   53        1.41465          4.55666266
   54        1.41465          4.54527292
   55        1.41465          4.55678736
   56        1.41465          4.55335171
   57        1.41465          4.56940238
   58        1.41465          4.54534509
   59        1.41465          4.55148968
   60        1.41465          4.55082013
   61        1.41465          4.54501414
   62        1.41465          4.53799843
   63        1.41465          4.53475713
   64        1.41465          4.56516630
   65        1.41465          4.55835333
   66        1.41465          4.55444162
   67        1.41465          4.57637431
   68        1.41465          4.55176210
   69        1.41465          4.55810094
   70        1.41465          4.57908164
   71        1.41465          4.55759991
   72        1.41465          4.54848108
   73        1.41465          4.54219452
   74        1.41465          4.53544663
   75        1.41465          4.58691053
   76        1.41465          4.54487832
   77        1.41465          4.52022427
   78        1.41465          4.54882230
   79        1.41465          4.55659883
   80        1.41465          4.54579398
   81        1.41465          4.56750051
   82        1.41465          4.55026429
   83        1.41465          4.54462585
   84        1.41465          4.56281674
   85        1.41465          4.57347658
   86        1.41465          4.58028991
   87        1.41465          4.54646378
   88        1.41465          4.57617598
   89        1.41465          4.55348326
   90        1.41465          4.53227566
   91        1.41465          4.55166904
   92        1.41465          4.56297430
   93        1.41465          4.55676725
   94        1.41465          4.54285602
   95        1.41465          4.56385910
   96        1.41465          4.57513987
   97        1.41465          4.55092870
   98        1.41465          4.54350236
   99        1.41465          4.56701933
  100        1.41465          4.57328663
  101        1.41465          4.54527340
  102        1.41465          4.57367350
  103        1.41465          4.54471951
  104        1.41465          4.54118527
 
 PAW TEST:
 ==== Compensation charge inside spheres ============
 The following values must be close to each other ...
 Compensation charge over spherical meshes =     84.134769740582485
 Compensation charge over fft grid         =     84.134837104224047
 
 ==== Results concerning PAW augmentation regions ====
 
 Total pseudopotential strength Dij (hartree):
 Atom #  1
   0.46899  -0.11636  -0.00032  -0.00011   0.00001  -0.00001  -0.00001   0.00001   0.00001   0.00003  -0.00000   0.00004 ...
  -0.11636   0.02290   0.00006   0.00002  -0.00000  -0.00002  -0.00000   0.00000   0.00000   0.00000   0.00000  -0.00001 ...
  -0.00032   0.00006  -0.18187   0.00001  -0.00001   0.04177   0.00014   0.00011   0.00001  -0.00003   0.00005   0.00002 ...
  -0.00011   0.00002   0.00001  -0.18189   0.00007   0.00014   0.04195  -0.00014   0.00002  -0.00011  -0.00002   0.00002 ...
   0.00001  -0.00000  -0.00001   0.00007  -0.18185   0.00011  -0.00014   0.04189  -0.00009   0.00002   0.00002  -0.00003 ...
  -0.00001  -0.00002   0.04177   0.00014   0.00011   0.32000   0.00003   0.00002   0.00003   0.00001  -0.00002   0.00001 ...
  -0.00001  -0.00000   0.00014   0.04195  -0.00014   0.00003   0.32004  -0.00004   0.00001  -0.00006  -0.00002   0.00002 ...
   0.00001   0.00000   0.00011  -0.00014   0.04189   0.00002  -0.00004   0.32001  -0.00000   0.00001   0.00000  -0.00002 ...
   0.00001   0.00000   0.00001   0.00002  -0.00009   0.00003   0.00001  -0.00000  -0.05791  -0.00000  -0.00001   0.00002 ...
   0.00003   0.00000  -0.00003  -0.00011   0.00002   0.00001  -0.00006   0.00001  -0.00000  -0.05791   0.00001   0.00001 ...
  -0.00000   0.00000   0.00005  -0.00002   0.00002  -0.00002  -0.00002   0.00000  -0.00001   0.00001  -0.05789  -0.00000 ...
   0.00004  -0.00001   0.00002   0.00002  -0.00003   0.00001   0.00002  -0.00002   0.00002   0.00001  -0.00000  -0.05789 ...
   ...  only 12  components have been written...
 Atom #104
   0.61509  -1.76347   0.00039  -0.00002   0.00021  -0.00285   0.00018  -0.00158
  -1.76347   5.11385  -0.00101   0.00006  -0.00056   0.00760  -0.00053   0.00424
   0.00039  -0.00101  -0.30691   0.00034  -0.00028   0.95084  -0.00175   0.00144
  -0.00002   0.00006   0.00034  -0.30688   0.00004  -0.00175   0.95056  -0.00020
   0.00021  -0.00056  -0.00028   0.00004  -0.30712   0.00144  -0.00020   0.95185
  -0.00285   0.00760   0.95084  -0.00175   0.00144  -0.18300   0.00880  -0.00713
   0.00018  -0.00053  -0.00175   0.95056  -0.00020   0.00880  -0.18114   0.00103
  -0.00158   0.00424   0.00144  -0.00020   0.95185  -0.00713   0.00103  -0.18775
 
 
 Augmentation waves occupancies Rhoij:
 Atom #  1
   2.02495  -0.08075   0.00133   0.00070  -0.00175  -0.00109  -0.00031   0.00059   0.00591   0.00834   0.00468  -0.01414 ...
  -0.08075   0.24746  -0.00869  -0.00305   0.00496   0.00342   0.00113  -0.00003  -0.00935  -0.01372  -0.00806   0.02988 ...
   0.00133  -0.00869   2.05054  -0.00578  -0.00374  -0.02458   0.00346   0.00235   0.00679   0.03377  -0.01253  -0.00496 ...
   0.00070  -0.00305  -0.00578   2.04594   0.00904   0.00345  -0.02128  -0.00572  -0.00305  -0.02942  -0.02661  -0.00831 ...
  -0.00175   0.00496  -0.00374   0.00904   2.05137   0.00234  -0.00573  -0.02451   0.00661  -0.00618  -0.01379  -0.00645 ...
  -0.00109   0.00342  -0.02458   0.00345   0.00234   0.01596  -0.00131  -0.00097  -0.00120  -0.01166   0.00375   0.00214 ...
  -0.00031   0.00113   0.00346  -0.02128  -0.00573  -0.00131   0.01454   0.00257   0.00142   0.00896   0.00878   0.00387 ...
   0.00059  -0.00003   0.00235  -0.00572  -0.02451  -0.00097   0.00257   0.01577  -0.00253   0.00262   0.00461   0.00180 ...
   0.00591  -0.00935   0.00679  -0.00305   0.00661  -0.00120   0.00142  -0.00253   0.09343   0.00183   0.01617  -0.00385 ...
   0.00834  -0.01372   0.03377  -0.02942  -0.00618  -0.01166   0.00896   0.00262   0.00183   0.10541   0.00991   0.00511 ...
   0.00468  -0.00806  -0.01253  -0.02661  -0.01379   0.00375   0.00878   0.00461   0.01617   0.00991   0.10331   0.01761 ...
  -0.01414   0.02988  -0.00496  -0.00831  -0.00645   0.00214   0.00387   0.00180  -0.00385   0.00511   0.01761   0.09194 ...
   ...  only 12  components have been written...
 Atom #104
   1.98932   0.03037   0.00065  -0.00679   0.00175  -0.00199  -0.00032  -0.00108
   0.03037   0.00109  -0.00581   0.00029  -0.00332  -0.00020  -0.00001  -0.00010
   0.00065  -0.00581   1.71610  -0.00830   0.01911   0.03008  -0.00264   0.00297
  -0.00679   0.00029  -0.00830   1.76102  -0.00032  -0.00263   0.03032  -0.00043
   0.00175  -0.00332   0.01911  -0.00032   1.75876   0.00296  -0.00043   0.03335
  -0.00199  -0.00020   0.03008  -0.00263   0.00296   0.00068  -0.00014   0.00014
  -0.00032  -0.00001  -0.00264   0.03032  -0.00043  -0.00014   0.00071  -0.00002
  -0.00108  -0.00010   0.00297  -0.00043   0.03335   0.00014  -0.00002   0.00080
 
 
================================================================================
 
 ----iterations are completed or convergence reached----
 
 Mean square residual over all n,k,spin=   74.352E-14; max=  31.197E-11
 reduced coordinates (array xred) for  104 atoms
       0.434318241940      0.443268864050      0.826873244880
       0.147896730440      0.302743841480      0.121122407410
       0.098882417670      0.166870841480      0.595285127390
       0.320263221430      0.065086820884      0.347157327840
       0.910218237680      0.444029769750      0.875093989550
       0.661190072260      0.346035904220      0.159003698980
       0.564569261340      0.201012830200      0.680369947570
       0.826953390030      0.079511282059      0.367596952870
       0.429001063320      0.934091697260      0.826049092830
       0.177032996790      0.830850944120      0.138981206040
       0.085169595309      0.669688198440      0.564025929800
       0.317261535640      0.576406356360      0.348181327090
       0.902704893840      0.942019515310      0.856562569040
       0.647440005270      0.815113689810      0.169941137770
       0.554584542270      0.683176394100      0.641908924440
       0.817846006570      0.576055258290      0.351480294050
       0.087554250744      0.062207663662      0.156561487340
       0.325913246950      0.176321016900      0.789479564000
       0.401126962580      0.326129330450      0.319152152600
       0.158178454660      0.402089306470      0.655308616360
       0.599133950710      0.098782782902      0.207567189060
       0.854817381400      0.180297395180      0.839799857000
       0.915317073040      0.332742946060      0.322570363640
       0.675702584910      0.426287736160      0.697185335850
       0.083439631762      0.538483104640      0.177300143930
       0.325890612140      0.663589431420      0.821317139300
       0.414946930640      0.847572981580      0.294198378550
       0.137644408710      0.894181976020      0.682758994830
       0.577985558640      0.579492502680      0.197162290610
       0.844558378880      0.681850255390      0.830511252070
       0.903998969580      0.826570572260      0.329586869370
       0.672215863530      0.930934854750      0.698760596300
       0.073275912435      0.361115548720      0.819364783760
       0.170145203710      0.153811113120      0.276556253880
       0.347977423650      0.353077863600      0.098930613892
       0.420907747580      0.098854667502      0.683313183560
       0.583447949430      0.350245917130      0.834500978610
       0.659925751490      0.152124700740      0.401787520190
       0.847770268890      0.425548902350      0.203733817720
       0.924328960630      0.149350349020      0.644923850490
       0.072744894192      0.806758278610      0.802238494880
       0.155843637730      0.641546818040      0.262555251790
       0.339654955020      0.921387437380      0.131583457370
       0.410234739410      0.590241005370      0.669220910860
       0.577041087910      0.847117333310      0.763785538290
       0.655534437560      0.657905112270      0.355844812170
       0.873207138350      0.931167618530      0.210267846600
       0.916551617240      0.646261102810      0.643694695890
       0.073948771743      0.140837560850      0.957301185910
       0.996641275940      0.072004702050      0.316516143020
       0.180455566810      0.983783860680      0.264703870140
       0.393045933800      0.424503379850      0.465423585160
       0.335049243570      0.233265781050      0.411292445870
       0.516852068860      0.280965009670      0.319960762740
       0.332726416700      0.130642530020      0.017863178810
       0.413084481590      0.271587443870      0.763409118630
       0.244445388010      0.098638853538      0.638156482050
       0.264318927380      0.441279988290      0.760267256180
       0.169586519350      0.323108733830      0.469782886760
       0.110741070480      0.502137457300      0.546352024720
       0.017443522940      0.414979064430      0.168653732840
       0.920296963600      0.370794234550      0.554161938700
       0.820545690110      0.246702996190      0.300139351230
       0.485836182860      0.060876610043      0.261886538950
       0.599082288560      0.180854844320      1.018297668500
       0.672946037480      1.006406490000      0.164708405960
       0.751924873100      0.391095217190      0.900818697390
       0.668035262840      0.348883694980      0.507032915270
       0.590150076530      0.516475378470      0.689231071310
       0.854327120280      0.090364336179      0.013814139764
       0.905467175150      0.279350381810      0.950086069760
       0.741118903510      0.205008149180      0.763161571320
       0.354786087100      0.582332405560      0.010288549687
       0.405669468590      0.761254058940      0.797930534330
       0.244317524150      0.639841288630      0.614041669170
       0.191365309560      0.469623251830      0.193582189670
       0.052343519491      0.564383116450      0.940714731380
       0.987554435790      0.579524330640      0.320163205630
       0.389567162010      0.919049367290      0.492655674580
       0.334883538230      0.750518042850      0.283440570550
       0.503221375840      0.877442285930      0.102029515310
       0.064520461910     -0.008932777981      0.639501529960
       0.239519839470      0.918609673110      0.821872250590
       0.168909323260      0.827438786940      0.486662009290
       0.682812105990      0.502149085320      0.230121800560
       0.483575179230      0.604598748340      0.344696255870
       0.578704657160      0.659715169190      1.003440305400
       0.840713081670      0.590138668240     -0.001027135810
       0.894410762240      0.779016601640      0.947253631130
       0.731211049790      0.704128498510      0.744450961140
       0.597430784120      0.028472994714      0.723954339680
       0.742513234190      0.889266362450      0.902943164950
       0.686199404680      0.886839154080      0.468658816300
       0.016182477609      0.783129006040      0.287281114010
       0.905235627690      0.849870367460      0.569437655870
       0.812757420640      0.743377377550      0.281418742770
       0.054786829919     -0.045038848353      0.025653034399
       0.221810699990      0.251920944330      0.805389497480
       1.013956384600      0.256283072250      0.314820414780
       0.779321988440      0.500837999100      0.638026017830
       0.231335395080      0.719300835000      0.930371669170
       0.519510842090      0.791599411800      0.396050355920
       0.522417567090      0.466886299170      0.116810368300
       0.788038505390      1.011867891800      0.653190100900
 rms dE/dt=  3.2938E-04; max dE/dt=  2.6975E-04; dE/dt below (all hartree)
    1      -0.000473521784      0.000168986540      0.000269672465
    2      -0.000473554584      0.000169015533      0.000269626116
    3      -0.000473609533      0.000168965627      0.000269576601
    4      -0.000473552948      0.000168994993      0.000269636135
    5      -0.000473527910      0.000169032868      0.000269635686
    6      -0.000473505646      0.000168985910      0.000269621684
    7      -0.000473419773      0.000169003479      0.000269662491
    8      -0.000473437381      0.000168922902      0.000269649972
    9      -0.000473558845      0.000168990346      0.000269658214
   10      -0.000473530350      0.000169055750      0.000269638952
   11      -0.000473329359      0.000169018174      0.000269616325
   12      -0.000473472638      0.000169093790      0.000269632909
   13      -0.000473468978      0.000169026625      0.000269591963
   14      -0.000473477356      0.000168851779      0.000269716769
   15      -0.000473558372      0.000168912552      0.000269695463
   16      -0.000473642370      0.000168927573      0.000269624427
   17      -0.000473639601      0.000168944556      0.000269525298
   18      -0.000473456207      0.000168849711      0.000269570644
   19      -0.000473602729      0.000168904830      0.000269642340
   20      -0.000473524524      0.000169008489      0.000269613725
   21      -0.000473459861      0.000169007476      0.000269581521
   22      -0.000473581232      0.000169033363      0.000269623559
   23      -0.000473481160      0.000169045002      0.000269576337
   24      -0.000473466342      0.000169103313      0.000269573930
   25      -0.000473454837      0.000168957404      0.000269605902
   26      -0.000473428271      0.000168907658      0.000269616368
   27      -0.000473440995      0.000169114636      0.000269552327
   28      -0.000473516770      0.000169028274      0.000269638674
   29      -0.000473423243      0.000169113962      0.000269683734
   30      -0.000473474993      0.000168953158      0.000269623159
   31      -0.000473484216      0.000168955389      0.000269610726
   32      -0.000473322646      0.000169121496      0.000269622847
   33      -0.000473556664      0.000169100774      0.000269653632
   34      -0.000473524722      0.000169089484      0.000269635393
   35      -0.000473589929      0.000169056529      0.000269563056
   36      -0.000473583246      0.000169145186      0.000269641163
   37      -0.000473716902      0.000168907660      0.000269679535
   38      -0.000473570072      0.000169024280      0.000269627487
   39      -0.000473594485      0.000168900846      0.000269617731
   40      -0.000473378518      0.000168949601      0.000269595595
   41      -0.000473515142      0.000168926182      0.000269644439
   42      -0.000473493428      0.000169028691      0.000269633046
   43      -0.000473565551      0.000169018526      0.000269606151
   44      -0.000473423653      0.000168898358      0.000269634908
   45      -0.000473657700      0.000168931108      0.000269644596
   46      -0.000473561764      0.000168839865      0.000269612141
   47      -0.000473488750      0.000168732176      0.000269637764
   48      -0.000473553488      0.000168984286      0.000269667961
   49      -0.000473450380      0.000168988376      0.000269600126
   50      -0.000473517612      0.000168995382      0.000269628770
   51      -0.000473461540      0.000168915145      0.000269627745
   52      -0.000473568824      0.000169196521      0.000269693825
   53      -0.000473634428      0.000168779034      0.000269721972
   54      -0.000473342488      0.000168902475      0.000269679086
   55      -0.000473570676      0.000168975930      0.000269546983
   56      -0.000473637351      0.000168787178      0.000269589765
   57      -0.000473344068      0.000169053117      0.000269746524
   58      -0.000473537083      0.000168905978      0.000269637534
   59      -0.000473534265      0.000168975579      0.000269587395
   60      -0.000473458329      0.000169056453      0.000269600820
   61      -0.000473484775      0.000169048789      0.000269614707
   62      -0.000473540043      0.000168961357      0.000269596749
   63      -0.000473534104      0.000168993631      0.000269659506
   64      -0.000473435550      0.000168922013      0.000269545256
   65      -0.000473536506      0.000169070474      0.000269638142
   66      -0.000473426646      0.000169004197      0.000269596559
   67      -0.000473428334      0.000168893570      0.000269751468
   68      -0.000473449441      0.000168884982      0.000269574077
   69      -0.000473696044      0.000169089176      0.000269671364
   70      -0.000473496029      0.000168921953      0.000269629201
   71      -0.000473438885      0.000169050143      0.000269630138
   72      -0.000473634527      0.000169020612      0.000269639482
   73      -0.000473479488      0.000169012839      0.000269596628
   74      -0.000473528604      0.000168949016      0.000269584974
   75      -0.000473529020      0.000169050405      0.000269682023
   76      -0.000473375031      0.000168903543      0.000269649965
   77      -0.000473636498      0.000168953868      0.000269604138
   78      -0.000473628636      0.000169017198      0.000269710752
   79      -0.000473481769      0.000168949465      0.000269628566
   80      -0.000473479359      0.000169090153      0.000269644939
   81      -0.000473520721      0.000168954897      0.000269674165
   82      -0.000473605028      0.000169077875      0.000269626937
   83      -0.000473481755      0.000168971273      0.000269643822
   84      -0.000473466669      0.000169053528      0.000269619593
   85      -0.000473383584      0.000169088830      0.000269655196
   86      -0.000473591512      0.000169008028      0.000269617210
   87      -0.000473539766      0.000168933296      0.000269620981
   88      -0.000473485857      0.000169029069      0.000269611035
   89      -0.000473511127      0.000168979830      0.000269589155
   90      -0.000473393097      0.000168990222      0.000269627856
   91      -0.000473547069      0.000168899566      0.000269646322
   92      -0.000473578013      0.000168874055      0.000269658122
   93      -0.000473433826      0.000169069359      0.000269579983
   94      -0.000473643736      0.000169128613      0.000269690648
   95      -0.000473452449      0.000168955185      0.000269557508
   96      -0.000473417555      0.000169077903      0.000269656613
   97      -0.000473329062      0.000169032112      0.000269645793
   98      -0.000473337833      0.000168903218      0.000269601775
   99      -0.000473495682      0.000169128439      0.000269656348
  100      -0.000473538759      0.000168930636      0.000269600124
  101      -0.000473512977      0.000168915406      0.000269618695
  102      -0.000473513844      0.000169047224      0.000269650575
  103      -0.000473554671      0.000168959882      0.000269621453
  104      -0.000473513936      0.000168999527      0.000269635809
 
 cartesian coordinates (angstrom) at end:
    1      6.00026311226370     6.33802505239272     5.83942060508615
    2      2.03637220045014     4.33561076231266     0.85884363863973
    3      1.29920734800165     2.41215598075819     4.24326568950507
    4      4.50869059152982     0.89256362948582     2.40287163864304
    5     12.78064398097853     6.26030842112901     6.06014249929522
    6      9.34346751509773     4.86247659189354     1.00054531908859
    7      7.92275225783024     2.81870726323437     4.73346614332552
    8     11.72935074208305     1.00429413086110     2.41865129835772
    9      5.83277631927369    13.40440671069239     5.88730129210209
   10      2.35076363535690    11.93301989091387     1.03516872942740
   11      1.01382413127725     9.65132418939231     4.07726065356644
   12      4.37014599571039     8.25364280872558     2.46553626958365
   13     12.58287038822452    13.42941656662712     5.98290453126699
   14      9.05820521223325    11.61802277390406     1.13229167822085
   15      7.69536379477253     9.75950035888703     4.51285653480564
   16     11.50879059080609     8.15301272354224     2.35891819411340
   17      1.21602739529698     0.88635192356618     1.10194385056707
   18      4.50918154678812     2.51421862669454     5.57206993766501
   19      5.61686630639597     4.63344848469177     2.20971338261528
   20      2.09282680405675     5.78971019387510     4.68160539972608
   21      8.49818045907931     1.31749338962724     1.33710068719062
   22     12.04459152516573     2.47275391144059     5.79434891230280
   23     12.94822783674917     4.63047932678591     2.10115306100847
   24      9.46329326783020     6.04110800438822     4.84870228404108
   25      1.06552032043320     7.74414251539882     1.30194772638246
   26      4.41348876349351     9.53001062346775     5.85144494633167
   27      5.71981078416832    12.13578368334664     2.08356790110050
   28      1.70429925790609    12.87865682000973     4.93549707202189
   29      8.10809386321334     8.24085822086485     1.31959792091713
   30     11.80575598019641     9.69412789359254     5.78421157745455
   31     12.69354686442959    11.74164412899375     2.20690772812902
   32      9.31900502045214    13.30625718365072     4.91471765799715
   33      0.86767058091095     5.22411026918490     5.87089404157090
   34      2.36067678411601     2.19502721179894     1.94717814911173
   35      4.88336118383886     5.02082519934823     0.65371925499941
   36      5.89264758054329     1.37575675674073     4.78093043379220
   37      8.14342695210590     4.97080788805891     5.84519508079420
   38      9.32914838270893     2.08317295732266     2.71399239521860
   39     11.98349517389591     5.97356040804697     1.27996037593763
   40     13.06782933792073     2.00449664049618     4.38128918712101
   41      0.77907327619995    11.63841502825107     5.79628860259101
   42      2.06740372577549     9.21804685845681     1.90296405718865
   43      4.65404019542110    13.20483335866822     0.94972342885336
   44      5.65045242450362     8.45062894066991     4.73551082620453
   45      7.96863718702504    12.12106752460629     5.39488367228363
   46      9.17811686017951     9.36249737710498     2.44101955914495
   47     12.25085067075333    13.24740535609605     1.37397251198976
   48     12.86417327588454     9.15896484511213     4.42756692035372
   49      0.89996179838259     2.05978538283733     6.83226716797527
   50     14.15758311631945     0.86129918860525     2.00894743946659
   51      2.35412902327338    14.13995367322218     1.94843553176767
   52      5.46362085908050     6.05820590804668     3.26689471448093
   53      4.67951914466558     3.31379531120387     2.87499070771979
   54      7.27560083757753     3.96121412550091     2.18058202137919
   55      4.71831500665190     1.81783714568002     0.05501018653938
   56      5.73804586810516     3.86764115339034     5.37339579901858
   57      3.38214548669374     1.40420176574452     4.50430172418623
   58      3.58513948412814     6.33866733405440     5.40774470693572
   59      2.29515610683826     4.64157642928469     3.34529868653497
   60      1.41220369410050     7.23367751584828     3.92651429425431
   61      0.14857527202714     5.97850041017007     1.24417653246686
   62     12.98109092428759     5.18854190995399     3.75780521127530
   63     11.61575111221592     3.40896627301990     1.95641995058222
   64      6.88220503999265     0.79614377636545     1.75042540389647
   65      8.37342814284982     2.53837072131770     7.13561577277763
   66      9.38689243429726    14.36655402809300     1.10870781602819
   67     10.52961227405284     5.52983935181661     6.27935556372782
   68      9.39390679970471     4.91909153196677     3.48448196283657
   69      8.22740136153408     7.35533591199174     4.82376479290799
   70     12.16512983156592     1.13807889996822    -0.11380786477953
   71     12.73362470765085     3.89430189242927     6.57934963528934
   72     10.42874787206655     2.84648238583371     5.27924118538434
   73      4.94948098728176     8.31533488063512     0.04338923465116
   74      5.53611950761582    10.91949964181338     5.67411494924787
   75      3.28236808215659     9.19367339527450     4.38988248057296
   76      2.61538048383965     6.73305483234202     1.38281691441422
   77      0.51487606413249     8.16005755672799     6.76463732560013
   78     13.93261472777686     8.16897001231511     2.09152082891820
   79      5.31789548862511    13.17919566550761     3.51505537696644
   80      4.59758491745190    10.75346459140678     2.01719837860090
   81      6.99889936543431    12.53952233945729     0.69145378473912
   82      0.83610116612559    -0.10981812378945     4.54920257558680
   83      3.13396865167131    13.21757764638116     5.90508100633252
   84      2.18894348341787    11.90236858901478     3.51984065712350
   85      9.61310685163690     7.10905344189591     1.51946765673977
   86      6.73720279890174     8.62749594984502     2.40041939000950
   87      7.99527623610985     9.43474947444661     7.08591846188384
   88     11.87952367780246     8.33422246868256    -0.16291657370110
   89     12.48290434461823    11.08898421530717     6.61532425282889
   90     10.19663791881728    10.03231482790121     5.20146673422870
   91      8.41781958207668     0.33082819923114     5.01776145666221
   92     10.30196374454959    12.70292661462492     6.35014221470444
   93      9.55751688316187    12.65763088820070     3.26312958232224
   94      0.04585875000698    11.28403830712628     2.13096020019281
   95     12.67467727484464    12.08847632594359     3.92194089684498
   96     11.41432798968554    10.55918309985816     1.87776200706480
   97      0.78631750521570    -0.65756519895520     0.16414822059299
   98      3.00826927482405     3.62316464823428     5.72082164657046
   99     14.37029388893858     3.51059614696142     2.01200351224855
  100     10.93503950422604     7.09156559163841     4.40724051392199
  101      3.03996781362997    10.35536608100315     6.66077381266601
  102      7.20784840214643    11.31499984338139     2.77777461430832
  103      7.34744200669221     6.62660817494994     0.74820175496267
  104     10.96177135833487    14.44692210950543     4.56780763413242
 
 cartesian forces (hartree/bohr) at end:
    1      0.00000000044949     0.00000000006250    -0.00000000320508
    2      0.00000000171530    -0.00000000101258     0.00000000026044
    3      0.00000000384619     0.00000000082231     0.00000000395705
    4      0.00000000165112    -0.00000000025277    -0.00000000048836
    5      0.00000000070369    -0.00000000165759    -0.00000000046329
    6     -0.00000000008106     0.00000000005095     0.00000000054790
    7     -0.00000000333251    -0.00000000061429    -0.00000000253241
    8     -0.00000000262262     0.00000000235019    -0.00000000161159
    9      0.00000000184263    -0.00000000006733    -0.00000000212201
   10      0.00000000077870    -0.00000000249605    -0.00000000069819
   11     -0.00000000663425    -0.00000000122232     0.00000000083071
   12     -0.00000000137431    -0.00000000392549    -0.00000000028103
   13     -0.00000000142230    -0.00000000147942     0.00000000273552
   14     -0.00000000119359     0.00000000501996    -0.00000000655264
   15      0.00000000181304     0.00000000281266    -0.00000000490240
   16      0.00000000501958     0.00000000226262     0.00000000042534
   17      0.00000000504173     0.00000000158413     0.00000000777582
   18     -0.00000000178132     0.00000000500814     0.00000000426431
   19      0.00000000353496     0.00000000308951    -0.00000000093548
   20      0.00000000061943    -0.00000000077449     0.00000000115645
   21     -0.00000000173740    -0.00000000078523     0.00000000349860
   22      0.00000000269931    -0.00000000165683     0.00000000047278
   23     -0.00000000095802    -0.00000000215765     0.00000000390669
   24     -0.00000000153340    -0.00000000431005     0.00000000408896
   25     -0.00000000193221     0.00000000106644     0.00000000167570
   26     -0.00000000290821     0.00000000288848     0.00000000086943
   27     -0.00000000245088    -0.00000000474995     0.00000000567551
   28      0.00000000028837    -0.00000000149240    -0.00000000069357
   29     -0.00000000328623    -0.00000000466371    -0.00000000407803
   30     -0.00000000120503     0.00000000124139     0.00000000040941
   31     -0.00000000084699     0.00000000115713     0.00000000133801
   32     -0.00000000694270    -0.00000000502115     0.00000000036748
   33      0.00000000171386    -0.00000000413118    -0.00000000175725
   34      0.00000000055806    -0.00000000374100    -0.00000000043012
   35      0.00000000309219    -0.00000000253665     0.00000000496945
   36      0.00000000269578    -0.00000000575814    -0.00000000080381
   37      0.00000000772222     0.00000000305970    -0.00000000361284
   38      0.00000000228418    -0.00000000132607     0.00000000017167
   39      0.00000000326392     0.00000000321895     0.00000000088200
   40     -0.00000000474787     0.00000000131145     0.00000000238494
   41      0.00000000027008     0.00000000226373    -0.00000000114673
   42     -0.00000000057083    -0.00000000152186    -0.00000000029252
   43      0.00000000214783    -0.00000000112800     0.00000000174880
   44     -0.00000000310002     0.00000000323810    -0.00000000051034
   45      0.00000000555986     0.00000000215072    -0.00000000105831
   46      0.00000000208650     0.00000000544259     0.00000000125900
   47     -0.00000000060595     0.00000000938105    -0.00000000071704
   48      0.00000000163365     0.00000000015809    -0.00000000284973
   49     -0.00000000210505    -0.00000000007755     0.00000000210827
   50      0.00000000034899    -0.00000000028784     0.00000000003320
   51     -0.00000000169205     0.00000000263511     0.00000000005093
   52      0.00000000206451    -0.00000000762455    -0.00000000470517
   53      0.00000000466619     0.00000000777241    -0.00000000684695
   54     -0.00000000617463     0.00000000307149    -0.00000000384055
   55      0.00000000243842     0.00000000040919     0.00000000612812
   56      0.00000000494844     0.00000000740402     0.00000000295742
   57     -0.00000000628027    -0.00000000243086    -0.00000000880219
   58      0.00000000110375     0.00000000301340    -0.00000000062447
   59      0.00000000103253     0.00000000042622     0.00000000310706
   60     -0.00000000184414    -0.00000000257654     0.00000000207872
   61     -0.00000000087726    -0.00000000227474     0.00000000106578
   62      0.00000000124141     0.00000000095687     0.00000000241422
   63      0.00000000092081    -0.00000000019925    -0.00000000223415
   64     -0.00000000254941     0.00000000232629     0.00000000614938
   65      0.00000000100116    -0.00000000303494    -0.00000000063026
   66     -0.00000000298907    -0.00000000067251     0.00000000236001
   67     -0.00000000308060     0.00000000347842    -0.00000000914870
   68     -0.00000000205435     0.00000000370986     0.00000000401366
   69      0.00000000687015    -0.00000000362881    -0.00000000297780
   70     -0.00000000041696     0.00000000240200    -0.00000000003139
   71     -0.00000000260231    -0.00000000233821    -0.00000000010961
   72      0.00000000466271    -0.00000000115405    -0.00000000067369
   73     -0.00000000103168    -0.00000000096503     0.00000000239362
   74      0.00000000083860     0.00000000139891     0.00000000327618
   75      0.00000000067407    -0.00000000227724    -0.00000000389319
   76     -0.00000000492788     0.00000000303227    -0.00000000165902
   77      0.00000000481601     0.00000000128220     0.00000000193160
   78      0.00000000434988    -0.00000000099344    -0.00000000596173
   79     -0.00000000095894     0.00000000138325     0.00000000001240
   80     -0.00000000113915    -0.00000000378217    -0.00000000116901
   81      0.00000000042318     0.00000000122639    -0.00000000333950
   82      0.00000000355644    -0.00000000328033     0.00000000024965
   83     -0.00000000099061     0.00000000058952    -0.00000000111329
   84     -0.00000000155831    -0.00000000245503     0.00000000069220
   85     -0.00000000470792    -0.00000000377376    -0.00000000199611
   86      0.00000000310187    -0.00000000072375     0.00000000094444
   87      0.00000000121227     0.00000000200142     0.00000000061099
   88     -0.00000000082253    -0.00000000155108     0.00000000133399
   89      0.00000000016911     0.00000000025980     0.00000000296156
   90     -0.00000000426981    -0.00000000015801     0.00000000001339
   91      0.00000000146583     0.00000000325862    -0.00000000127061
   92      0.00000000261122     0.00000000421770    -0.00000000212997
   93     -0.00000000273210    -0.00000000307388     0.00000000360946
   94      0.00000000488304    -0.00000000509357    -0.00000000443408
   95     -0.00000000195471     0.00000000112115     0.00000000526093
   96     -0.00000000344333    -0.00000000335501    -0.00000000208024
   97     -0.00000000669169    -0.00000000171929    -0.00000000135061
   98     -0.00000000624389     0.00000000300084     0.00000000188744
   99     -0.00000000056722    -0.00000000517606    -0.00000000199421
  100      0.00000000120423     0.00000000208767     0.00000000215576
  101      0.00000000022956     0.00000000264523     0.00000000075752
  102      0.00000000015448    -0.00000000218425    -0.00000000157327
  103      0.00000000175199     0.00000000103125     0.00000000059275
  104      0.00000000020103    -0.00000000043829    -0.00000000049009
 frms,max,avg= 3.0285930E-09 9.3810498E-09   1.713E-05 -5.844E-06 -1.962E-05 h/b
 
 cartesian forces (eV/Angstrom) at end:
    1      0.00000002311346     0.00000000321383    -0.00000016481176
    2      0.00000008820435    -0.00000005206907     0.00000001339244
    3      0.00000019777909     0.00000004228501     0.00000020347990
    4      0.00000008490402    -0.00000001299800    -0.00000002511239
    5      0.00000003618494    -0.00000008523659    -0.00000002382327
    6     -0.00000000416824     0.00000000262011     0.00000002817398
    7     -0.00000017136446    -0.00000003158822    -0.00000013022154
    8     -0.00000013486049     0.00000012085169    -0.00000008287106
    9      0.00000009475199    -0.00000000346230    -0.00000010911816
   10      0.00000004004256    -0.00000012835228    -0.00000003590214
   11     -0.00000034114662    -0.00000006285442     0.00000004271687
   12     -0.00000007066960    -0.00000020185701    -0.00000001445116
   13     -0.00000007313768    -0.00000007607478     0.00000014066601
   14     -0.00000006137684     0.00000025813660    -0.00000033695049
   15      0.00000009323001     0.00000014463274    -0.00000025209171
   16      0.00000025811697     0.00000011634848     0.00000002187173
   17      0.00000025925622     0.00000008145909     0.00000039984853
   18     -0.00000009159905     0.00000025752891     0.00000021927949
   19      0.00000018177513     0.00000015886915    -0.00000004810449
   20      0.00000003185231    -0.00000003982606     0.00000005946713
   21     -0.00000008934056    -0.00000004037826     0.00000017990541
   22      0.00000013880411    -0.00000008519763     0.00000002431132
   23     -0.00000004926348    -0.00000011095083     0.00000020089012
   24     -0.00000007885052    -0.00000022163176     0.00000021026278
   25     -0.00000009935812     0.00000005483850     0.00000008616771
   26     -0.00000014954594     0.00000014853147     0.00000004470783
   27     -0.00000012602954    -0.00000024425243     0.00000029184622
   28      0.00000001482862    -0.00000007674209    -0.00000003566499
   29     -0.00000016898448    -0.00000023981774    -0.00000020970072
   30     -0.00000006196509     0.00000006383472     0.00000002105283
   31     -0.00000004355414     0.00000005950186     0.00000006880302
   32     -0.00000035700804    -0.00000025819790     0.00000001889682
   33      0.00000008813043    -0.00000021243396    -0.00000009036159
   34      0.00000002869679    -0.00000019236990    -0.00000002211758
   35      0.00000015900664    -0.00000013043969     0.00000025553925
   36      0.00000013862232    -0.00000029609534    -0.00000004133373
   37      0.00000039709250     0.00000015733598    -0.00000018577973
   38      0.00000011745706    -0.00000006818912     0.00000000882783
   39      0.00000016783756     0.00000016552519     0.00000004535448
   40     -0.00000024414503     0.00000006743769     0.00000012263863
   41      0.00000001388801     0.00000011640577    -0.00000005896741
   42     -0.00000002935305    -0.00000007825731    -0.00000001504185
   43      0.00000011044594    -0.00000005800417     0.00000008992712
   44     -0.00000015940950     0.00000016650956    -0.00000002624285
   45      0.00000028589935     0.00000011059432    -0.00000005442062
   46      0.00000010729219     0.00000027986938     0.00000006474053
   47     -0.00000003115926     0.00000048239294    -0.00000003687159
   48      0.00000008400543     0.00000000812934    -0.00000014653884
   49     -0.00000010824609    -0.00000000398799     0.00000010841167
   50      0.00000001794571    -0.00000001480121     0.00000000170730
   51     -0.00000008700862     0.00000013550286     0.00000000261900
   52      0.00000010616122    -0.00000039207023    -0.00000024194955
   53      0.00000023994534     0.00000039967355    -0.00000035208443
   54     -0.00000031751235     0.00000015794239    -0.00000019748911
   55      0.00000012538880     0.00000002104134     0.00000031512048
   56      0.00000025445893     0.00000038073009     0.00000015207664
   57     -0.00000032294439    -0.00000012499965    -0.00000045262660
   58      0.00000005675727     0.00000015495532    -0.00000003211169
   59      0.00000005309506     0.00000002191691     0.00000015977121
   60     -0.00000009482968    -0.00000013249105     0.00000010689216
   61     -0.00000004511037    -0.00000011697194     0.00000005480457
   62      0.00000006383601     0.00000004920408     0.00000012414414
   63      0.00000004734978    -0.00000001024561    -0.00000011488457
   64     -0.00000013109579     0.00000011962274     0.00000031621403
   65      0.00000005148187    -0.00000015606277    -0.00000003240950
   66     -0.00000015370413    -0.00000003458170     0.00000012135682
   67     -0.00000015841080     0.00000017886735    -0.00000047044479
   68     -0.00000010563898     0.00000019076879     0.00000020639058
   69      0.00000035327719    -0.00000018660075    -0.00000015312482
   70     -0.00000002144079     0.00000012351569    -0.00000000161439
   71     -0.00000013381612    -0.00000012023542    -0.00000000563618
   72      0.00000023976609    -0.00000005934386    -0.00000003464277
   73     -0.00000005305087    -0.00000004962394     0.00000012308487
   74      0.00000004312260     0.00000007193492     0.00000016846781
   75      0.00000003466192    -0.00000011710041    -0.00000020019585
   76     -0.00000025340155     0.00000015592571    -0.00000008531029
   77      0.00000024764892     0.00000006593321     0.00000009932685
   78      0.00000022367988    -0.00000005108482    -0.00000030656468
   79     -0.00000004931078     0.00000007112975     0.00000000063767
   80     -0.00000005857769    -0.00000019448678    -0.00000006011270
   81      0.00000002176083     0.00000006306330    -0.00000017172413
   82      0.00000018287931    -0.00000016868128     0.00000001283747
   83     -0.00000005093940     0.00000003031445    -0.00000005724744
   84     -0.00000008013129    -0.00000012624278     0.00000003559450
   85     -0.00000024209079    -0.00000019405438    -0.00000010264398
   86      0.00000015950435    -0.00000003721648     0.00000004856514
   87      0.00000006233721     0.00000010291715     0.00000003141820
   88     -0.00000004229599    -0.00000007975996     0.00000006859674
   89      0.00000000869591     0.00000001335926     0.00000015228945
   90     -0.00000021956259    -0.00000000812537     0.00000000068879
   91      0.00000007537583     0.00000016756491    -0.00000006533752
   92      0.00000013427445     0.00000021688285    -0.00000010952746
   93     -0.00000014049006    -0.00000015806520     0.00000018560594
   94      0.00000025109606    -0.00000026192180    -0.00000022800961
   95     -0.00000010051507     0.00000005765171     0.00000027052778
   96     -0.00000017706326    -0.00000017252133    -0.00000010697046
   97     -0.00000034410037    -0.00000008840969    -0.00000006945092
   98     -0.00000032107356     0.00000015430919     0.00000009705614
   99     -0.00000002916779    -0.00000026616371    -0.00000010254634
  100      0.00000006192393     0.00000010735205     0.00000011085359
  101      0.00000001180454     0.00000013602301     0.00000003895348
  102      0.00000000794355    -0.00000011231889    -0.00000008090070
  103      0.00000009009095     0.00000005302878     0.00000003048056
  104      0.00000001033739    -0.00000002253782    -0.00000002520139
 frms,max,avg= 1.5573650E-07 4.8239294E-07   8.811E-04 -3.005E-04 -1.009E-03 e/A
 length scales=  1.000000000000  1.000000000000  1.000000000000 bohr
              =  0.529177208590  0.529177208590  0.529177208590 angstroms
 Fermi (or HOMO) energy (hartree) =   0.11595   Average Vxc (hartree)=  -0.38648
 Eigenvalues (hartree) for nkpt=   1  k points:
 kpt#   1, nband=420, wtk=  1.00000, kpt=  0.5000  0.5000  0.2500 (reduced coord)
  -2.13965   -2.13573   -2.13482   -2.13429   -2.13288   -2.13233   -2.13028   -2.12975
  -2.12956   -2.12923   -2.12922   -2.12920   -2.12879   -2.12780   -2.12577   -2.12208
  -1.19908   -1.19734   -1.19706   -1.19652   -1.19396   -1.19360   -1.19317   -1.19245
  -1.19237   -1.19229   -1.19208   -1.19096   -1.19077   -1.19014   -1.18972   -1.18946
  -1.18908   -1.18847   -1.18801   -1.18783   -1.18751   -1.18725   -1.18665   -1.18638
  -1.18599   -1.18580   -1.18552   -1.18537   -1.18501   -1.18434   -1.18413   -1.18344
  -1.18318   -1.18263   -1.18198   -1.18197   -1.18141   -1.18122   -1.18103   -1.18043
  -1.18010   -1.17993   -1.17987   -1.17821   -1.17717   -1.17599   -1.17577   -1.17415
  -0.99449   -0.98943   -0.98765   -0.98717   -0.98679   -0.98646   -0.98506   -0.98463
  -0.98335   -0.98202   -0.98162   -0.97745   -0.97205   -0.97190   -0.97101   -0.96809
  -0.53071   -0.52793   -0.52730   -0.52581   -0.52441   -0.52338   -0.52263   -0.52148
  -0.52061   -0.51959   -0.51800   -0.51732   -0.51497   -0.51392   -0.51226   -0.51108
  -0.51056   -0.50910   -0.50816   -0.50732   -0.50552   -0.50481   -0.50403   -0.50301
  -0.50180   -0.50104   -0.49984   -0.49915   -0.49873   -0.49789   -0.49671   -0.49649
  -0.49599   -0.49532   -0.49471   -0.49409   -0.49356   -0.49250   -0.49175   -0.49129
  -0.49047   -0.48954   -0.48911   -0.48853   -0.48764   -0.48720   -0.48616   -0.48568
  -0.48486   -0.48418   -0.48357   -0.48316   -0.48277   -0.48199   -0.48108   -0.48011
  -0.47962   -0.47872   -0.47808   -0.47637   -0.47480   -0.47385   -0.47274   -0.47184
  -0.47055   -0.46951   -0.46833   -0.46724   -0.46656   -0.46358   -0.46087   -0.45893
  -0.38992   -0.38891   -0.38764   -0.38623   -0.38526   -0.38481   -0.38396   -0.38298
  -0.38248   -0.38153   -0.38094   -0.37999   -0.37926   -0.37866   -0.37792   -0.37667
  -0.37626   -0.37564   -0.37488   -0.37393   -0.37342   -0.37206   -0.37179   -0.37038
  -0.36884   -0.36778   -0.36674   -0.36590   -0.36410   -0.36354   -0.36283   -0.36099
  -0.36044   -0.35834   -0.35733   -0.35509   -0.35261   -0.35043   -0.34953   -0.34856
  -0.34760   -0.34675   -0.34418   -0.34243   -0.34091   -0.33892   -0.33849   -0.33363
  -0.06847   -0.06562   -0.06438   -0.06281   -0.06147   -0.06091   -0.05958   -0.05900
  -0.05805   -0.05708   -0.05618   -0.05480   -0.05425   -0.05372   -0.05308   -0.05211
  -0.05072   -0.05047   -0.05001   -0.04921   -0.04854   -0.04821   -0.04718   -0.04628
  -0.04554   -0.04475   -0.04387   -0.04379   -0.04286   -0.04232   -0.04159   -0.04100
  -0.04003   -0.03918   -0.03885   -0.03789   -0.03751   -0.03672   -0.03606   -0.03557
  -0.03434   -0.03378   -0.03281   -0.03224   -0.03122   -0.03029   -0.02954   -0.02942
  -0.02871   -0.02841   -0.02745   -0.02698   -0.02658   -0.02595   -0.02554   -0.02476
  -0.02401   -0.02290   -0.02258   -0.02216   -0.02163   -0.02102   -0.02004   -0.01945
  -0.01899   -0.01809   -0.01775   -0.01705   -0.01584   -0.01521   -0.01503   -0.01398
  -0.01324   -0.01262   -0.01197   -0.01095   -0.00996   -0.00923   -0.00758   -0.00602
  -0.00438   -0.00039    0.00192    0.00308    0.00423    0.00507    0.00635    0.00881
   0.00961    0.01060    0.01138    0.01243    0.01452    0.01658    0.01747    0.01888
   0.02040    0.02160    0.02247    0.02364    0.02528    0.02599    0.02639    0.02695
   0.02752    0.02832    0.02957    0.03058    0.03161    0.03226    0.03368    0.03434
   0.03464    0.03574    0.03679    0.03778    0.03879    0.03988    0.04033    0.04140
   0.04184    0.04247    0.04356    0.04419    0.04484    0.04598    0.04673    0.04721
   0.04840    0.04870    0.05025    0.05063    0.05166    0.05194    0.05267    0.05334
   0.05472    0.05500    0.05626    0.05691    0.05705    0.05785    0.05823    0.05948
   0.06052    0.06100    0.06177    0.06254    0.06379    0.06408    0.06538    0.06567
   0.06692    0.06752    0.06836    0.06873    0.06993    0.07044    0.07126    0.07184
   0.07200    0.07310    0.07355    0.07418    0.07522    0.07610    0.07660    0.07750
   0.07803    0.07861    0.07980    0.08068    0.08100    0.08193    0.08301    0.08319
   0.08407    0.08417    0.08513    0.08604    0.08637    0.08683    0.08745    0.08800
   0.08904    0.08952    0.08982    0.09064    0.09144    0.09180    0.09237    0.09308
   0.09376    0.09435    0.09491    0.09523    0.09668    0.09731    0.09802    0.09861
   0.09945    0.10008    0.10082    0.10216    0.10278    0.10343    0.10372    0.10438
   0.10621    0.10765    0.10913    0.10998    0.11167    0.11319    0.11460    0.11595
   0.22697    0.22895    0.22996    0.23109

--- !EnergyTerms
iteration_state     : {dtset: 2, }
comment             : Components of total free energy in Hartree
kinetic             :  8.56399415560613E+02
hartree             :  7.38674307465067E+02
xc                  : -3.64872167102347E+02
Ewald energy        : -2.02146171202885E+03
psp_core            :  1.45288397953489E+02
local_psp           : -2.30955483091259E+03
spherical_terms     :  1.78099344744178E+02
total_energy        : -2.77742724432044E+03
total_energy_eV     : -7.55776388884255E+04
...


--- !EnergyTermsDC
iteration_state     : {dtset: 2, }
comment             : '"Double-counting" decomposition of free energy'
band_energy         : -3.09020061403045E+02
Ewald energy        : -2.02146171202885E+03
psp_core            :  1.45288397953489E+02
xc_dc               : -6.27218760403945E+02
spherical_terms     :  3.49848915619116E+01
total_energy_dc     : -2.77742724432044E+03
total_energy_dc_eV  : -7.55776388884256E+04
...

 
 Cartesian components of stress tensor (hartree/bohr^3)
  sigma(1 1)= -3.43937205E-12  sigma(3 2)= -5.77827434E-12
  sigma(2 2)= -8.68621841E-12  sigma(3 1)= -1.69945967E-05
  sigma(3 3)= -1.48921847E-12  sigma(2 1)= -1.88920751E-12
 
-Cartesian components of stress tensor (GPa)         [Pressure=  1.3352E-07 GPa]
- sigma(1 1)= -1.01189802E-07  sigma(3 2)= -1.70002672E-07
- sigma(2 2)= -2.55557326E-07  sigma(3 1)= -4.99998214E-01
- sigma(3 3)= -4.38143127E-08  sigma(2 1)= -5.55823947E-08
 
== END DATASET(S) ==============================================================
================================================================================
  
 -outvars: echo values of variables after computation  --------
-          iomode           1
            acell      1.0000000000E+00  1.0000000000E+00  1.0000000000E+00 Bohr
              amu      1.38905500E+02  9.59400000E+01  1.59994000E+01
        autoparal           1
           bandpp          14
     densfor_pred           6
           diemac      4.00000000E+00
             ecut      3.00000000E+01 Hartree
           ecutsm      5.00000000E-01 Hartree
           etotal1    -2.7774272443E+03
           etotal2    -2.7774272443E+03
            fcart1     4.4953172256E-10  6.2513386486E-11 -3.2050605159E-09
                       1.7153028453E-09 -1.0125819796E-09  2.6044104555E-10
                       3.8461823106E-09  8.2231331083E-10  3.9570633770E-09
                       1.6511153678E-09 -2.5281137189E-10 -4.8834963842E-10
                       7.0367121659E-10 -1.6575715137E-09 -4.6327325162E-10
                      -8.1065623259E-11  5.0976578215E-11  5.4786411109E-10
                      -3.3325155635E-09 -6.1429335873E-10 -2.5324044666E-09
                      -2.6226018748E-09  2.3501940896E-09 -1.6115720571E-09
                       1.8426339694E-09 -6.7366190775E-11 -2.1220289015E-09
                       7.7872510746E-10 -2.4960458868E-09 -6.9816376479E-10
                      -6.6342503809E-09 -1.2223311618E-09  8.3071345506E-10
                      -1.3742810083E-09 -3.9255372230E-09 -2.8105497321E-10
                      -1.4223254537E-09 -1.4793858776E-09  2.7355415894E-09
                      -1.1935604287E-09  5.0199565175E-09 -6.5526433326E-09
                       1.8130056474E-09  2.8126412668E-09 -4.9023945630E-09
                       5.0195870926E-09  2.2625893476E-09  4.2530981477E-10
                       5.0417418333E-09  1.5840344454E-09  7.7758456582E-09
                      -1.7812561684E-09  5.0081122863E-09  4.2643235770E-09
                       3.5348184927E-09  3.0893986183E-09 -9.3549927100E-10
                       6.1946059188E-10 -7.7442840603E-10  1.1563811390E-09
                      -1.7374631691E-09 -7.8533884822E-10  3.4986238578E-09
                       2.6991390263E-09 -1.6566655940E-09  4.7283186371E-10
                      -9.5797375188E-10 -2.1577104270E-09  3.9067088664E-09
                      -1.5333414262E-09 -4.3100636393E-09  4.0888060976E-09
                      -1.9322821008E-09  1.0665267439E-09  1.6757369778E-09
                      -2.9083655360E-09  2.8885773789E-09  8.6944744709E-10
                      -2.4508882281E-09 -4.7500383887E-09  5.6754104034E-09
                       2.8840278026E-10 -1.4924239342E-09 -6.9349585387E-10
                      -3.2862170112E-09 -4.6635910074E-09 -4.0780016749E-09
                      -1.2051805572E-09  1.2416035613E-09  4.0938462796E-10
                      -8.4694237733E-10  1.1570941335E-09  1.3379921807E-09
                      -6.9428043080E-09 -5.0211919143E-09  3.6746211991E-10
                       1.7138959881E-09 -4.1311715128E-09 -1.7572642711E-09
                       5.5807154571E-10 -3.7410106570E-09 -4.3011876980E-10
                       3.0921822908E-09 -2.5366542511E-09  4.9694007526E-09
                       2.6957780281E-09 -5.7581346366E-09 -8.0380038623E-10
                       7.7222228569E-09  3.0596934928E-09 -3.6128421100E-09
                       2.2841838688E-09 -1.3260633945E-09  1.7168653963E-10
                       3.2639698724E-09  3.2189248458E-09  8.8201334570E-10
                      -4.7478567455E-09  1.3114622377E-09  2.3849647552E-09
                       2.7010291383E-10  2.2637482120E-09 -1.1467429697E-09
                      -5.7081082983E-10 -1.5218528604E-09 -2.9251544516E-10
                       2.1478235349E-09 -1.1279811710E-09  1.7487989496E-09
                      -3.1000337641E-09  3.2381002367E-09 -5.1032220602E-10
                       5.5598862795E-09  2.1507277546E-09 -1.0583112053E-09
                       2.0865141708E-09  5.4425872480E-09  1.2589987748E-09
                      -6.0595895905E-10  9.3810594958E-09 -7.1705276116E-10
                       1.6336150214E-09  1.5809492566E-10 -2.8497099374E-09
                      -2.1050464890E-09 -7.7553361470E-11  2.1082743965E-09
                       3.4899951230E-10 -2.8783973035E-10  3.3182711170E-11
                      -1.6920566944E-09  2.6351122156E-09  5.0926467158E-11
                       2.0645078978E-09 -7.6245426303E-09 -4.7051465410E-09
                       4.6661911801E-09  7.7723866288E-09 -6.8469279996E-09
                      -6.1746058735E-09  3.0714861253E-09 -3.8405444875E-09
                       2.4384406714E-09  4.0918430822E-10  6.1281096518E-09
                       4.9484484948E-09  7.4040199676E-09  2.9574242099E-09
                      -6.2802468145E-09 -2.4308512883E-09 -8.8021818207E-09
                       1.1037519786E-09  3.0134050379E-09 -6.2448550195E-10
                       1.0325414931E-09  4.2621179367E-10  3.1070556365E-09
                      -1.8441399611E-09 -2.5765445285E-09  2.0787250440E-09
                      -8.7725648304E-10 -2.2747391354E-09  1.0657638627E-09
                       1.2414105057E-09  9.5685604584E-10  2.4142134150E-09
                       9.2082294155E-10 -1.9923723663E-10 -2.2341375767E-09
                      -2.5494202877E-09  2.3262851185E-09  6.1493909690E-09
                       1.0011666271E-09 -3.0349379822E-09 -6.3025943938E-10
                      -2.9890627278E-09 -6.7252612666E-10  2.3599858141E-09
                      -3.0805864250E-09  3.4783992255E-09 -9.1487014136E-09
                      -2.0543412475E-09  3.7098585529E-09  4.0136432168E-09
                       6.8701547918E-09 -3.6288019578E-09 -2.9778053744E-09
                      -4.1695634568E-10  2.4020049135E-09 -3.1382262051E-11
                      -2.6022944707E-09 -2.3381973163E-09 -1.0959183495E-10
                       4.6626813867E-09 -1.1540490171E-09 -6.7371448083E-10
                      -1.0316672256E-09 -9.6501855786E-10  2.3936050655E-09
                       8.3857955103E-10  1.3988974093E-09  3.2761727832E-09
                       6.7407411894E-10 -2.2772299067E-09 -3.8931600491E-09
                      -4.9278865690E-09  3.0322779907E-09 -1.6590118421E-09
                       4.8160184766E-09  1.2821996837E-09  1.9316018419E-09
                       4.3498945660E-09 -9.9344712278E-10 -5.9617434486E-09
                      -9.5892640431E-10  1.3832670095E-09  1.2424984053E-11
                      -1.1391799744E-09 -3.7822015106E-09 -1.1689988984E-09
                       4.2321378386E-10  1.2263995405E-09 -3.3395173301E-09
                       3.5564575474E-09 -3.2803468657E-09  2.4964283561E-10
                      -9.9061121144E-10  5.8951867512E-10 -1.1132759251E-09
                      -1.5582916118E-09 -2.4550127537E-09  6.9222018144E-10
                      -4.7079019875E-09 -3.7737636545E-09 -1.9961096236E-09
                       3.1018836281E-09 -7.2373794687E-10  9.4444620123E-10
                       1.2122643890E-09  2.0014109239E-09  6.1099375600E-10
                      -8.2248972209E-10 -1.5510470272E-09  1.3339704643E-09
                       1.6911321177E-10  2.5978858907E-10  2.9615345749E-09
                      -4.2697821896E-09 -1.5801257096E-10  1.3398137929E-11
                       1.4658395750E-09  3.2586183161E-09 -1.2706004351E-09
                       2.6111993429E-09  4.2176914336E-09 -2.1299773568E-09
                      -2.7320935642E-09 -3.0738776969E-09  3.6094722330E-09
                       4.8830528250E-09 -5.0935716457E-09 -4.4340836988E-09
                      -1.9546999432E-09  1.1211229608E-09  5.2609464736E-09
                      -3.4433082757E-09 -3.3549976799E-09 -2.0802413813E-09
                      -6.6916799200E-09 -1.7193053123E-09 -1.3506053748E-09
                      -6.2438784118E-09  3.0008394737E-09  1.8874452134E-09
                      -5.6721977554E-10 -5.1760654428E-09 -1.9942021977E-09
                       1.2042313696E-09  2.0876555238E-09  2.1557605650E-09
                       2.2958939731E-10  2.6452185357E-09  7.5752467438E-10
                       1.5451047877E-10 -2.1842741435E-09 -1.5732485974E-09
                       1.7519865409E-09  1.0312432724E-09  5.9274092836E-10
                       2.0101521302E-10 -4.3831402893E-10 -4.9007041767E-10
            fcart2     4.4948526698E-10  6.2499116354E-11 -3.2050786951E-09
                       1.7153017150E-09 -1.0125822242E-09  2.6044151029E-10
                       3.8461912849E-09  8.2231255464E-10  3.9570543445E-09
                       1.6511203534E-09 -2.5277088808E-10 -4.8835831215E-10
                       7.0368514197E-10 -1.6575879711E-09 -4.6328893102E-10
                      -8.1059402615E-11  5.0953119405E-11  5.4789664689E-10
                      -3.3325083599E-09 -6.1429320487E-10 -2.5324059441E-09
                      -2.6226192020E-09  2.3501913909E-09 -1.6115856854E-09
                       1.8426329085E-09 -6.7331078580E-11 -2.1220105893E-09
                       7.7870382970E-10 -2.4960545581E-09 -6.9818550535E-10
                      -6.6342460244E-09 -1.2223239057E-09  8.3071095662E-10
                      -1.3743050184E-09 -3.9254942483E-09 -2.8103027461E-10
                      -1.4223015330E-09 -1.4794190469E-09  2.7355186039E-09
                      -1.1935896231E-09  5.0199580349E-09 -6.5526443033E-09
                       1.8130352067E-09  2.8126591772E-09 -4.9024036792E-09
                       5.0195763848E-09  2.2626178423E-09  4.2533749260E-10
                       5.0417311046E-09  1.5841271413E-09  7.7758164850E-09
                      -1.7813180316E-09  5.0081404425E-09  4.2643075835E-09
                       3.5349637228E-09  3.0895132468E-09 -9.3548348398E-10
                       6.1942894639E-10 -7.7449365304E-10  1.1564516237E-09
                      -1.7373974784E-09 -7.8523228414E-10  3.4986034698E-09
                       2.6993104155E-09 -1.6568303203E-09  4.7277989459E-10
                      -9.5802219026E-10 -2.1576502924E-09  3.9066911448E-09
                      -1.5333985386E-09 -4.3100518198E-09  4.0889603950E-09
                      -1.9322079646E-09  1.0664391716E-09  1.6756953038E-09
                      -2.9082057706E-09  2.8884773925E-09  8.6942885748E-10
                      -2.4508845011E-09 -4.7499538771E-09  5.6755058882E-09
                       2.8837081118E-10 -1.4923961524E-09 -6.9357364650E-10
                      -3.2862252802E-09 -4.6637129473E-09 -4.0780299764E-09
                      -1.2050292148E-09  1.2413878498E-09  4.0941245200E-10
                      -8.4699318143E-10  1.1571271230E-09  1.3380058921E-09
                      -6.9427015197E-09 -5.0211501551E-09  3.6748469770E-10
                       1.7138640544E-09 -4.1311831263E-09 -1.7572533354E-09
                       5.5806380737E-10 -3.7409991878E-09 -4.3011854053E-10
                       3.0921870201E-09 -2.5366484083E-09  4.9694475511E-09
                       2.6957750881E-09 -5.7581380781E-09 -8.0381315584E-10
                       7.7222203701E-09  3.0596978959E-09 -3.6128407957E-09
                       2.2841764316E-09 -1.3260673268E-09  1.7167400992E-10
                       3.2639212020E-09  3.2189526737E-09  8.8200432743E-10
                      -4.7478653919E-09  1.3114544251E-09  2.3849418129E-09
                       2.7007886404E-10  2.2637319384E-09 -1.1467335557E-09
                      -5.7082594132E-10 -1.5218625921E-09 -2.9251743777E-10
                       2.1478318269E-09 -1.1280015234E-09  1.7488042144E-09
                      -3.1000215002E-09  3.2380956245E-09 -5.1034230402E-10
                       5.5598575700E-09  2.1507172640E-09 -1.0583126092E-09
                       2.0865011086E-09  5.4425934310E-09  1.2590030393E-09
                      -6.0595127172E-10  9.3810498499E-09 -7.1703836062E-10
                       1.6336456280E-09  1.5809057376E-10 -2.8497270399E-09
                      -2.1050515505E-09 -7.7554079958E-11  2.1082715299E-09
                       3.4898855244E-10 -2.8783767756E-10  3.3201730976E-11
                      -1.6920483123E-09  2.6351112602E-09  5.0931483698E-11
                       2.0645071671E-09 -7.6245526629E-09 -4.7051700794E-09
                       4.6661942912E-09  7.7724137962E-09 -6.8469526773E-09
                      -6.1746326321E-09  3.0714906768E-09 -3.8405519619E-09
                       2.4384242292E-09  4.0918897490E-10  6.1281181380E-09
                       4.9484386910E-09  7.4040220286E-09  2.9574201336E-09
                      -6.2802689183E-09 -2.4308562781E-09 -8.8021866008E-09
                       1.1037531951E-09  3.0134014026E-09 -6.2447306588E-10
                       1.0325345355E-09  4.2621606420E-10  3.1070555358E-09
                      -1.8441437913E-09 -2.5765408297E-09  2.0787216336E-09
                      -8.7725715094E-10 -2.2747422434E-09  1.0657793462E-09
                       1.2414128346E-09  9.5686702246E-10  2.4142194118E-09
                       9.2080678081E-10 -1.9924534179E-10 -2.2341494044E-09
                      -2.5494075274E-09  2.3262921859E-09  6.1493842741E-09
                       1.0011631189E-09 -3.0349378991E-09 -6.3026447628E-10
                      -2.9890696665E-09 -6.7250709084E-10  2.3600145480E-09
                      -3.0805998976E-09  3.4784163766E-09 -9.1486954358E-09
                      -2.0543512932E-09  3.7098626366E-09  4.0136580698E-09
                       6.8701480122E-09 -3.6288072245E-09 -2.9778039885E-09
                      -4.1695701329E-10  2.4019979673E-09 -3.1394864735E-11
                      -2.6023094527E-09 -2.3382067606E-09 -1.0960625343E-10
                       4.6627083872E-09 -1.1540544387E-09 -6.7369472888E-10
                      -1.0316751618E-09 -9.6503197653E-10  2.3936197361E-09
                       8.3860114921E-10  1.3989115695E-09  3.2761776277E-09
                       6.7406705171E-10 -2.2772406315E-09 -3.8931897119E-09
                      -4.9278759348E-09  3.0322725514E-09 -1.6590211857E-09
                       4.8160051512E-09  1.2821968092E-09  1.9315999411E-09
                       4.3498813827E-09 -9.9344169303E-10 -5.9617343066E-09
                      -9.5894198379E-10  1.3832535296E-09  1.2400693807E-11
                      -1.1391548445E-09 -3.7821660878E-09 -1.1690060535E-09
                       4.2318081292E-10  1.2263860372E-09 -3.3395028347E-09
                       3.5564367107E-09 -3.2803288615E-09  2.4964896992E-10
                      -9.9061371295E-10  5.8952215083E-10 -1.1132855428E-09
                      -1.5583056558E-09 -2.4550314765E-09  6.9220279877E-10
                      -4.7079166909E-09 -3.7737572119E-09 -1.9961078576E-09
                       3.1018660795E-09 -7.2374535651E-10  9.4444169637E-10
                       1.2122658211E-09  2.0014199951E-09  6.1098673854E-10
                      -8.2252615941E-10 -1.5510844020E-09  1.3339942491E-09
                       1.6910848035E-10  2.5979629491E-10  2.9615585934E-09
                      -4.2698128564E-09 -1.5801321593E-10  1.3394871475E-11
                       1.4658265507E-09  3.2586189868E-09 -1.2706124857E-09
                       2.6112225533E-09  4.2177002151E-09 -2.1299702176E-09
                      -2.7320968909E-09 -3.0738790076E-09  3.6094611413E-09
                       4.8830412946E-09 -5.0935685004E-09 -4.4340812297E-09
                      -1.9547070263E-09  1.1211474345E-09  5.2609282281E-09
                      -3.4433324538E-09 -3.3550060228E-09 -2.0802443443E-09
                      -6.6916873836E-09 -1.7192948982E-09 -1.3506054308E-09
                      -6.2438870968E-09  3.0008362732E-09  1.8874414918E-09
                      -5.6722331749E-10 -5.1760604338E-09 -1.9942089060E-09
                       1.2042288967E-09  2.0876651470E-09  2.1557592696E-09
                       2.2956169783E-10  2.6452265228E-09  7.5752458346E-10
                       1.5447742977E-10 -2.1842548167E-09 -1.5732683036E-09
                       1.7519901195E-09  1.0312455778E-09  5.9275252649E-10
                       2.0103027378E-10 -4.3829077672E-10 -4.9008908120E-10
-          fftalg         401
           getwfk1          0
           getwfk2         -1
             iscf           7
              ixc     -116133
           jdtset        1    2
              kpt      5.00000000E-01  5.00000000E-01  2.50000000E-01
         kptrlatt        1    0    0      0    1    0      0    0    2
          kptrlen      2.69569869E+01
P           mkmem           1
            natom         104
            nband         420
           ndtset           2
            ngfft         144     144      72
          ngfftdg         144     144      72
             nkpt           1
-          npband          10
-           npfft           6
            nstep1        100
            nstep2        250
             nsym           1
           ntypat           3
              occ      2.000000  2.000000  2.000000  2.000000  2.000000  2.000000
                       2.000000  2.000000  2.000000  2.000000  2.000000  2.000000
                       2.000000  2.000000  2.000000  2.000000  2.000000  2.000000
                       2.000000  2.000000  2.000000  2.000000  2.000000  2.000000
                       2.000000  2.000000  2.000000  2.000000  2.000000  2.000000
                       2.000000  2.000000  2.000000  2.000000  2.000000  2.000000
                       2.000000  2.000000  2.000000  2.000000  2.000000  2.000000
                       2.000000  2.000000  2.000000  2.000000  2.000000  2.000000
                       2.000000  2.000000  2.000000  2.000000  2.000000  2.000000
                       2.000000  2.000000  2.000000  2.000000  2.000000  2.000000
                       2.000000  2.000000  2.000000  2.000000  2.000000  2.000000
                       2.000000  2.000000  2.000000  2.000000  2.000000  2.000000
                       2.000000  2.000000  2.000000  2.000000  2.000000  2.000000
                       2.000000  2.000000  2.000000  2.000000  2.000000  2.000000
                       2.000000  2.000000  2.000000  2.000000  2.000000  2.000000
                       2.000000  2.000000  2.000000  2.000000  2.000000  2.000000
                       2.000000  2.000000  2.000000  2.000000  2.000000  2.000000
                       2.000000  2.000000  2.000000  2.000000  2.000000  2.000000
                       2.000000  2.000000  2.000000  2.000000  2.000000  2.000000
                       2.000000  2.000000  2.000000  2.000000  2.000000  2.000000
                       2.000000  2.000000  2.000000  2.000000  2.000000  2.000000
                       2.000000  2.000000  2.000000  2.000000  2.000000  2.000000
                       2.000000  2.000000  2.000000  2.000000  2.000000  2.000000
                       2.000000  2.000000  2.000000  2.000000  2.000000  2.000000
                       2.000000  2.000000  2.000000  2.000000  2.000000  2.000000
                       2.000000  2.000000  2.000000  2.000000  2.000000  2.000000
                       2.000000  2.000000  2.000000  2.000000  2.000000  2.000000
                       2.000000  2.000000  2.000000  2.000000  2.000000  2.000000
                       2.000000  2.000000  2.000000  2.000000  2.000000  2.000000
                       2.000000  2.000000  2.000000  2.000000  2.000000  2.000000
                       2.000000  2.000000  2.000000  2.000000  2.000000  2.000000
                       2.000000  2.000000  2.000000  2.000000  2.000000  2.000000
                       2.000000  2.000000  2.000000  2.000000  2.000000  2.000000
                       2.000000  2.000000  2.000000  2.000000  2.000000  2.000000
                       2.000000  2.000000  2.000000  2.000000  2.000000  2.000000
                       2.000000  2.000000  2.000000  2.000000  2.000000  2.000000
                       2.000000  2.000000  2.000000  2.000000  2.000000  2.000000
                       2.000000  2.000000  2.000000  2.000000  2.000000  2.000000
                       2.000000  2.000000  2.000000  2.000000  2.000000  2.000000
                       2.000000  2.000000  2.000000  2.000000  2.000000  2.000000
                       2.000000  2.000000  2.000000  2.000000  2.000000  2.000000
                       2.000000  2.000000  2.000000  2.000000  2.000000  2.000000
                       2.000000  2.000000  2.000000  2.000000  2.000000  2.000000
                       2.000000  2.000000  2.000000  2.000000  2.000000  2.000000
                       2.000000  2.000000  2.000000  2.000000  2.000000  2.000000
                       2.000000  2.000000  2.000000  2.000000  2.000000  2.000000
                       2.000000  2.000000  2.000000  2.000000  2.000000  2.000000
                       2.000000  2.000000  2.000000  2.000000  2.000000  2.000000
                       2.000000  2.000000  2.000000  2.000000  2.000000  2.000000
                       2.000000  2.000000  2.000000  2.000000  2.000000  2.000000
                       2.000000  2.000000  2.000000  2.000000  2.000000  2.000000
                       2.000000  2.000000  2.000000  2.000000  2.000000  2.000000
                       2.000000  2.000000  2.000000  2.000000  2.000000  2.000000
                       2.000000  2.000000  2.000000  2.000000  2.000000  2.000000
                       2.000000  2.000000  2.000000  2.000000  2.000000  2.000000
                       2.000000  2.000000  2.000000  2.000000  2.000000  2.000000
                       2.000000  2.000000  2.000000  2.000000  2.000000  2.000000
                       2.000000  2.000000  2.000000  2.000000  2.000000  2.000000
                       2.000000  2.000000  2.000000  2.000000  2.000000  2.000000
                       2.000000  2.000000  2.000000  2.000000  2.000000  2.000000
                       2.000000  2.000000  2.000000  2.000000  2.000000  2.000000
                       2.000000  2.000000  2.000000  2.000000  2.000000  2.000000
                       2.000000  2.000000  2.000000  2.000000  2.000000  2.000000
                       2.000000  2.000000  2.000000  2.000000  2.000000  2.000000
                       2.000000  2.000000  2.000000  2.000000  2.000000  2.000000
                       2.000000  2.000000  2.000000  2.000000  2.000000  2.000000
                       2.000000  2.000000  2.000000  2.000000  2.000000  2.000000
                       2.000000  2.000000  2.000000  2.000000  2.000000  2.000000
                       2.000000  2.000000  2.000000  2.000000  2.000000  2.000000
                       2.000000  2.000000  0.000000  0.000000  0.000000  0.000000
        paral_kgb           1
        pawecutdg      3.00000000E+01 Hartree
         pawmixdg           1
         pawxcdev           0
           prtcif           1
           prteig           0
            rprim      2.6950086568E+01 -3.6140907040E-01 -4.9128292943E-01
                      -3.5331384706E-01  2.7202646793E+01  2.0168438572E-01
                      -2.5330023004E-01  9.1926763762E-02  1.3495270910E+01
           shiftk      5.00000000E-01  5.00000000E-01  5.00000000E-01
          spgroup           1
           strten1    -3.4394292969E-12 -8.6862912696E-12 -1.4892496958E-12
                      -5.7782556951E-12 -1.6994596723E-05 -1.8892045995E-12
           strten2    -3.4393720511E-12 -8.6862184112E-12 -1.4892184708E-12
                      -5.7782743434E-12 -1.6994596723E-05 -1.8892075133E-12
           tolvrs1     1.00000000E-20
           tolvrs2     0.00000000E+00
           tolwfr1     0.00000000E+00
           tolwfr2     1.00000000E-20
            typat      1  1  1  1  1  1  1  1  1  1  1  1  1  1  1  1  2  2  2  2
                       2  2  2  2  2  2  2  2  2  2  2  2  3  3  3  3  3  3  3  3
                       3  3  3  3  3  3  3  3  3  3  3  3  3  3  3  3  3  3  3  3
                       3  3  3  3  3  3  3  3  3  3  3  3  3  3  3  3  3  3  3  3
                       3  3  3  3  3  3  3  3  3  3  3  3  3  3  3  3  3  3  3  3
                       3  3  3  3
           useylm           1
         wfoptalg         114
           xangst      6.0002631123E+00  6.3380250524E+00  5.8394206051E+00
                       2.0363722005E+00  4.3356107623E+00  8.5884363864E-01
                       1.2992073480E+00  2.4121559808E+00  4.2432656895E+00
                       4.5086905915E+00  8.9256362949E-01  2.4028716386E+00
                       1.2780643981E+01  6.2603084211E+00  6.0601424993E+00
                       9.3434675151E+00  4.8624765919E+00  1.0005453191E+00
                       7.9227522578E+00  2.8187072632E+00  4.7334661433E+00
                       1.1729350742E+01  1.0042941309E+00  2.4186512984E+00
                       5.8327763193E+00  1.3404406711E+01  5.8873012921E+00
                       2.3507636354E+00  1.1933019891E+01  1.0351687294E+00
                       1.0138241313E+00  9.6513241894E+00  4.0772606536E+00
                       4.3701459957E+00  8.2536428087E+00  2.4655362696E+00
                       1.2582870388E+01  1.3429416567E+01  5.9829045313E+00
                       9.0582052122E+00  1.1618022774E+01  1.1322916782E+00
                       7.6953637948E+00  9.7595003589E+00  4.5128565348E+00
                       1.1508790591E+01  8.1530127235E+00  2.3589181941E+00
                       1.2160273953E+00  8.8635192357E-01  1.1019438506E+00
                       4.5091815468E+00  2.5142186267E+00  5.5720699377E+00
                       5.6168663064E+00  4.6334484847E+00  2.2097133826E+00
                       2.0928268041E+00  5.7897101939E+00  4.6816053997E+00
                       8.4981804591E+00  1.3174933896E+00  1.3371006872E+00
                       1.2044591525E+01  2.4727539114E+00  5.7943489123E+00
                       1.2948227837E+01  4.6304793268E+00  2.1011530610E+00
                       9.4632932678E+00  6.0411080044E+00  4.8487022840E+00
                       1.0655203204E+00  7.7441425154E+00  1.3019477264E+00
                       4.4134887635E+00  9.5300106235E+00  5.8514449463E+00
                       5.7198107842E+00  1.2135783683E+01  2.0835679011E+00
                       1.7042992579E+00  1.2878656820E+01  4.9354970720E+00
                       8.1080938632E+00  8.2408582209E+00  1.3195979209E+00
                       1.1805755980E+01  9.6941278936E+00  5.7842115775E+00
                       1.2693546864E+01  1.1741644129E+01  2.2069077281E+00
                       9.3190050205E+00  1.3306257184E+01  4.9147176580E+00
                       8.6767058091E-01  5.2241102692E+00  5.8708940416E+00
                       2.3606767841E+00  2.1950272118E+00  1.9471781491E+00
                       4.8833611838E+00  5.0208251993E+00  6.5371925500E-01
                       5.8926475805E+00  1.3757567567E+00  4.7809304338E+00
                       8.1434269521E+00  4.9708078881E+00  5.8451950808E+00
                       9.3291483827E+00  2.0831729573E+00  2.7139923952E+00
                       1.1983495174E+01  5.9735604080E+00  1.2799603759E+00
                       1.3067829338E+01  2.0044966405E+00  4.3812891871E+00
                       7.7907327620E-01  1.1638415028E+01  5.7962886026E+00
                       2.0674037258E+00  9.2180468585E+00  1.9029640572E+00
                       4.6540401954E+00  1.3204833359E+01  9.4972342885E-01
                       5.6504524245E+00  8.4506289407E+00  4.7355108262E+00
                       7.9686371870E+00  1.2121067525E+01  5.3948836723E+00
                       9.1781168602E+00  9.3624973771E+00  2.4410195591E+00
                       1.2250850671E+01  1.3247405356E+01  1.3739725120E+00
                       1.2864173276E+01  9.1589648451E+00  4.4275669204E+00
                       8.9996179838E-01  2.0597853828E+00  6.8322671680E+00
                       1.4157583116E+01  8.6129918861E-01  2.0089474395E+00
                       2.3541290233E+00  1.4139953673E+01  1.9484355318E+00
                       5.4636208591E+00  6.0582059080E+00  3.2668947145E+00
                       4.6795191447E+00  3.3137953112E+00  2.8749907077E+00
                       7.2756008376E+00  3.9612141255E+00  2.1805820214E+00
                       4.7183150067E+00  1.8178371457E+00  5.5010186539E-02
                       5.7380458681E+00  3.8676411534E+00  5.3733957990E+00
                       3.3821454867E+00  1.4042017657E+00  4.5043017242E+00
                       3.5851394841E+00  6.3386673341E+00  5.4077447069E+00
                       2.2951561068E+00  4.6415764293E+00  3.3452986865E+00
                       1.4122036941E+00  7.2336775158E+00  3.9265142943E+00
                       1.4857527203E-01  5.9785004102E+00  1.2441765325E+00
                       1.2981090924E+01  5.1885419100E+00  3.7578052113E+00
                       1.1615751112E+01  3.4089662730E+00  1.9564199506E+00
                       6.8822050400E+00  7.9614377637E-01  1.7504254039E+00
                       8.3734281428E+00  2.5383707213E+00  7.1356157728E+00
                       9.3868924343E+00  1.4366554028E+01  1.1087078160E+00
                       1.0529612274E+01  5.5298393518E+00  6.2793555637E+00
                       9.3939067997E+00  4.9190915320E+00  3.4844819628E+00
                       8.2274013615E+00  7.3553359120E+00  4.8237647929E+00
                       1.2165129832E+01  1.1380789000E+00 -1.1380786478E-01
                       1.2733624708E+01  3.8943018924E+00  6.5793496353E+00
                       1.0428747872E+01  2.8464823858E+00  5.2792411854E+00
                       4.9494809873E+00  8.3153348806E+00  4.3389234651E-02
                       5.5361195076E+00  1.0919499642E+01  5.6741149492E+00
                       3.2823680822E+00  9.1936733953E+00  4.3898824806E+00
                       2.6153804838E+00  6.7330548323E+00  1.3828169144E+00
                       5.1487606413E-01  8.1600575567E+00  6.7646373256E+00
                       1.3932614728E+01  8.1689700123E+00  2.0915208289E+00
                       5.3178954886E+00  1.3179195666E+01  3.5150553770E+00
                       4.5975849175E+00  1.0753464591E+01  2.0171983786E+00
                       6.9988993654E+00  1.2539522339E+01  6.9145378474E-01
                       8.3610116613E-01 -1.0981812379E-01  4.5492025756E+00
                       3.1339686517E+00  1.3217577646E+01  5.9050810063E+00
                       2.1889434834E+00  1.1902368589E+01  3.5198406571E+00
                       9.6131068516E+00  7.1090534419E+00  1.5194676567E+00
                       6.7372027989E+00  8.6274959498E+00  2.4004193900E+00
                       7.9952762361E+00  9.4347494744E+00  7.0859184619E+00
                       1.1879523678E+01  8.3342224687E+00 -1.6291657370E-01
                       1.2482904345E+01  1.1088984215E+01  6.6153242528E+00
                       1.0196637919E+01  1.0032314828E+01  5.2014667342E+00
                       8.4178195821E+00  3.3082819923E-01  5.0177614567E+00
                       1.0301963745E+01  1.2702926615E+01  6.3501422147E+00
                       9.5575168832E+00  1.2657630888E+01  3.2631295823E+00
                       4.5858750007E-02  1.1284038307E+01  2.1309602002E+00
                       1.2674677275E+01  1.2088476326E+01  3.9219408968E+00
                       1.1414327990E+01  1.0559183100E+01  1.8777620071E+00
                       7.8631750522E-01 -6.5756519896E-01  1.6414822059E-01
                       3.0082692748E+00  3.6231646482E+00  5.7208216466E+00
                       1.4370293889E+01  3.5105961470E+00  2.0120035122E+00
                       1.0935039504E+01  7.0915655916E+00  4.4072405139E+00
                       3.0399678136E+00  1.0355366081E+01  6.6607738127E+00
                       7.2078484021E+00  1.1314999843E+01  2.7777746143E+00
                       7.3474420067E+00  6.6266081749E+00  7.4820175496E-01
                       1.0961771358E+01  1.4446922110E+01  4.5678076341E+00
            xcart      1.1338854007E+01  1.1977131572E+01  1.1034905718E+01
                       3.8481857635E+00  8.1931169596E+00  1.6229792680E+00
                       2.4551460776E+00  4.5583141934E+00  8.0186100622E+00
                       8.5201904359E+00  1.6867008159E+00  4.5407693295E+00
                       2.4151916926E+01  1.1830268423E+01  1.1452009650E+01
                       1.7656594735E+01  9.1887490862E+00  1.8907566366E+00
                       1.4971831986E+01  5.3265847763E+00  8.9449546702E+00
                       2.2165260619E+01  1.8978408642E+00  4.5705885648E+00
                       1.1022349838E+01  2.5330657657E+01  1.1125387104E+01
                       4.4422994740E+00  2.2550139532E+01  1.9561853999E+00
                       1.9158499550E+00  1.8238359538E+01  7.7049060076E+00
                       8.2583790926E+00  1.5597124507E+01  4.6591883202E+00
                       2.3778178999E+01  2.5377919435E+01  1.1306051043E+01
                       1.7117527107E+01  2.1954881248E+01  2.1397211744E+00
                       1.4542130065E+01  1.8442782872E+01  8.5280629278E+00
                       2.1748462337E+01  1.5406961205E+01  4.4577093568E+00
                       2.2979587472E+00  1.6749623929E+00  2.0823720914E+00
                       8.5211182069E+00  4.7511846427E+00  1.0529686175E+01
                       1.0614339044E+01  8.7559486869E+00  4.1757531253E+00
                       3.9548695032E+00  1.0940966655E+01  8.8469520677E+00
                       1.6059233696E+01  2.4897016883E+00  2.5267541109E+00
                       2.2760979365E+01  4.6728276866E+00  1.0949732563E+01
                       2.4468604518E+01  8.7503377916E+00  3.9706038486E+00
                       1.7883032591E+01  1.1416039667E+01  9.1627194167E+00
                       2.0135415946E+00  1.4634308488E+01  2.4603246422E+00
                       8.3402850536E+00  1.8009110122E+01  1.1057628430E+01
                       1.0808875914E+01  2.2933307569E+01  3.9373727124E+00
                       3.2206588459E+00  2.4337134349E+01  9.3267377958E+00
                       1.5322076861E+01  1.5572965137E+01  2.4936786761E+00
                       2.2309645594E+01  1.8319246816E+01  1.0930575776E+01
                       2.3987327229E+01  2.2188491754E+01  4.1704512067E+00
                       1.7610367320E+01  2.5145181931E+01  9.2874703941E+00
                       1.6396597715E+00  9.8721376968E+00  1.1094381894E+01
                       4.4610326102E+00  4.1480002845E+00  3.6796334338E+00
                       9.2282152454E+00  9.4879845879E+00  1.2353503597E+00
                       1.1135490125E+01  2.5998034957E+00  9.0346491802E+00
                       1.5388846723E+01  9.3934655676E+00  1.1045817896E+01
                       1.7629535496E+01  3.9366263768E+00  5.1287023537E+00
                       2.2645523993E+01  1.1288393209E+01  2.4187745715E+00
                       2.4694618600E+01  3.7879496848E+00  8.2794366726E+00
                       1.4722351295E+00  2.1993417024E+01  1.0953398046E+01
                       3.9068268478E+00  1.7419584043E+01  3.5960809088E+00
                       8.7948613808E+00  2.4953518678E+01  1.7947171825E+00
                       1.0677807609E+01  1.5969374349E+01  8.9488185608E+00
                       1.5058541936E+01  2.2905498060E+01  1.0194852659E+01
                       1.7344127281E+01  1.7692555963E+01  4.6128584518E+00
                       2.3150752663E+01  2.5033968094E+01  2.5964317618E+00
                       2.4309764417E+01  1.7307935218E+01  8.3668889145E+00
                       1.7006813290E+00  3.8924302661E+00  1.2911113814E+01
                       2.6753954793E+01  1.6276195849E+00  3.7963604760E+00
                       4.4486591355E+00  2.6720639974E+01  3.6820095426E+00
                       1.0324747118E+01  1.1448350023E+01  6.1735363153E+00
                       8.8430096170E+00  6.2621655986E+00  5.4329450722E+00
                       1.3748893035E+01  7.4856098509E+00  4.1207028307E+00
                       8.9163231713E+00  3.4352143595E+00  1.0395418708E-01
                       1.0843335229E+01  7.3087825602E+00  1.0154246464E+01
                       6.3913287114E+00  2.6535567726E+00  8.5118966786E+00
                       6.7749317732E+00  1.1978345309E+01  1.0219156493E+01
                       4.3372164741E+00  8.7713082762E+00  6.3216983503E+00
                       2.6686782257E+00  1.3669669439E+01  7.4200366730E+00
                       2.8076657425E-01  1.1297728461E+01  2.3511529073E+00
                       2.4530706753E+01  9.8049232388E+00  7.1012227100E+00
                       2.1950588430E+01  6.4420126523E+00  3.6970979075E+00
                       1.3005482716E+01  1.5044936997E+00  3.3078246294E+00
                       1.5823485983E+01  4.7968254870E+00  1.3484359600E+01
                       1.7738655940E+01  2.7148852586E+01  2.0951541337E+00
                       1.9898083483E+01  1.0449881934E+01  1.1866262306E+01
                       1.7751911169E+01  9.2957358180E+00  6.5847166247E+00
                       1.5547535359E+01  1.3899570489E+01  9.1155943881E+00
                       2.2988763753E+01  2.1506574386E+00 -2.1506569620E-01
                       2.4063063376E+01  7.3591640555E+00  1.2433168943E+01
                       1.9707477387E+01  5.3790721513E+00  9.9763200298E+00
                       9.3531635659E+00  1.5713705628E+01  8.1993770606E-02
                       1.0461749708E+01  2.0634863831E+01  1.0722523301E+01
                       6.2027767426E+00  1.7373524872E+01  8.2956756438E+00
                       4.9423528478E+00  1.2723629671E+01  2.6131452602E+00
                       9.7297475359E-01  1.5420274011E+01  1.2783311934E+01
                       2.6328826151E+01  1.5437116111E+01  3.9524015679E+00
                       1.0049366077E+01  2.4905070460E+01  6.6424920044E+00
                       8.6881763667E+00  2.0321103057E+01  3.8119524913E+00
                       1.3226003032E+01  2.3696263059E+01  1.3066582867E+00
                       1.5800022234E+00 -2.0752617839E-01  8.5967469909E+00
                       5.9223424607E+00  2.4977601892E+01  1.1158985894E+01
                       4.1365037040E+00  2.2492216966E+01  6.6515348734E+00
                       1.8166139236E+01  1.3434164069E+01  2.8713777390E+00
                       1.2731468192E+01  1.6303604558E+01  4.5361352512E+00
                       1.5108882443E+01  1.7829092639E+01  1.3390445293E+01
                       2.2449046340E+01  1.5749397996E+01 -3.0786770680E-01
                       2.3589270554E+01  2.0955143259E+01  1.2501151118E+01
                       1.9268853143E+01  1.8958327504E+01  9.8293476170E+00
                       1.5907373646E+01  6.2517469358E-01  9.4821949532E+00
                       1.9467890108E+01  2.4005052388E+01  1.2000029691E+01
                       1.8061089420E+01  2.3919455870E+01  6.1664212467E+00
                       8.6660478310E-02  2.1323742073E+01  4.0269311784E+00
                       2.3951668872E+01  2.2843909620E+01  7.4113942044E+00
                       2.1569953891E+01  1.9953964246E+01  3.5484559361E+00
                       1.4859247384E+00 -1.2426181405E+00  3.1019518212E-01
                       5.6848050634E+00  6.8467889195E+00  1.0810786167E+01
                       2.7155919899E+01  6.6340652809E+00  3.8021356166E+00
                       2.0664229915E+01  1.3401116822E+01  8.3284775731E+00
                       5.7447066205E+00  1.9568805899E+01  1.2587038339E+01
                       1.3620859487E+01  2.1382250898E+01  5.2492332799E+00
                       1.3884653170E+01  1.2522474641E+01  1.4138964090E+00
                       2.0714745799E+01  2.7300726250E+01  8.6319054562E+00
             xred      4.3431824194E-01  4.4326886405E-01  8.2687324488E-01
                       1.4789673044E-01  3.0274384148E-01  1.2112240741E-01
                       9.8882417670E-02  1.6687084148E-01  5.9528512739E-01
                       3.2026322143E-01  6.5086820884E-02  3.4715732784E-01
                       9.1021823768E-01  4.4402976975E-01  8.7509398955E-01
                       6.6119007226E-01  3.4603590422E-01  1.5900369898E-01
                       5.6456926134E-01  2.0101283020E-01  6.8036994757E-01
                       8.2695339003E-01  7.9511282059E-02  3.6759695287E-01
                       4.2900106332E-01  9.3409169726E-01  8.2604909283E-01
                       1.7703299679E-01  8.3085094412E-01  1.3898120604E-01
                       8.5169595309E-02  6.6968819844E-01  5.6402592980E-01
                       3.1726153564E-01  5.7640635636E-01  3.4818132709E-01
                       9.0270489384E-01  9.4201951531E-01  8.5656256904E-01
                       6.4744000527E-01  8.1511368981E-01  1.6994113777E-01
                       5.5458454227E-01  6.8317639410E-01  6.4190892444E-01
                       8.1784600657E-01  5.7605525829E-01  3.5148029405E-01
                       8.7554250744E-02  6.2207663662E-02  1.5656148734E-01
                       3.2591324695E-01  1.7632101690E-01  7.8947956400E-01
                       4.0112696258E-01  3.2612933045E-01  3.1915215260E-01
                       1.5817845466E-01  4.0208930647E-01  6.5530861636E-01
                       5.9913395071E-01  9.8782782902E-02  2.0756718906E-01
                       8.5481738140E-01  1.8029739518E-01  8.3979985700E-01
                       9.1531707304E-01  3.3274294606E-01  3.2257036364E-01
                       6.7570258491E-01  4.2628773616E-01  6.9718533585E-01
                       8.3439631762E-02  5.3848310464E-01  1.7730014393E-01
                       3.2589061214E-01  6.6358943142E-01  8.2131713930E-01
                       4.1494693064E-01  8.4757298158E-01  2.9419837855E-01
                       1.3764440871E-01  8.9418197602E-01  6.8275899483E-01
                       5.7798555864E-01  5.7949250268E-01  1.9716229061E-01
                       8.4455837888E-01  6.8185025539E-01  8.3051125207E-01
                       9.0399896958E-01  8.2657057226E-01  3.2958686937E-01
                       6.7221586353E-01  9.3093485475E-01  6.9876059630E-01
                       7.3275912435E-02  3.6111554872E-01  8.1936478376E-01
                       1.7014520371E-01  1.5381111312E-01  2.7655625388E-01
                       3.4797742365E-01  3.5307786360E-01  9.8930613892E-02
                       4.2090774758E-01  9.8854667502E-02  6.8331318356E-01
                       5.8344794943E-01  3.5024591713E-01  8.3450097861E-01
                       6.5992575149E-01  1.5212470074E-01  4.0178752019E-01
                       8.4777026889E-01  4.2554890235E-01  2.0373381772E-01
                       9.2432896063E-01  1.4935034902E-01  6.4492385049E-01
                       7.2744894192E-02  8.0675827861E-01  8.0223849488E-01
                       1.5584363773E-01  6.4154681804E-01  2.6255525179E-01
                       3.3965495502E-01  9.2138743738E-01  1.3158345737E-01
                       4.1023473941E-01  5.9024100537E-01  6.6922091086E-01
                       5.7704108791E-01  8.4711733331E-01  7.6378553829E-01
                       6.5553443756E-01  6.5790511227E-01  3.5584481217E-01
                       8.7320713835E-01  9.3116761853E-01  2.1026784660E-01
                       9.1655161724E-01  6.4626110281E-01  6.4369469589E-01
                       7.3948771743E-02  1.4083756085E-01  9.5730118591E-01
                       9.9664127594E-01  7.2004702050E-02  3.1651614302E-01
                       1.8045556681E-01  9.8378386068E-01  2.6470387014E-01
                       3.9304593380E-01  4.2450337985E-01  4.6542358516E-01
                       3.3504924357E-01  2.3326578105E-01  4.1129244587E-01
                       5.1685206886E-01  2.8096500967E-01  3.1996076274E-01
                       3.3272641670E-01  1.3064253002E-01  1.7863178810E-02
                       4.1308448159E-01  2.7158744387E-01  7.6340911863E-01
                       2.4444538801E-01  9.8638853538E-02  6.3815648205E-01
                       2.6431892738E-01  4.4127998829E-01  7.6026725618E-01
                       1.6958651935E-01  3.2310873383E-01  4.6978288676E-01
                       1.1074107048E-01  5.0213745730E-01  5.4635202472E-01
                       1.7443522940E-02  4.1497906443E-01  1.6865373284E-01
                       9.2029696360E-01  3.7079423455E-01  5.5416193870E-01
                       8.2054569011E-01  2.4670299619E-01  3.0013935123E-01
                       4.8583618286E-01  6.0876610043E-02  2.6188653895E-01
                       5.9908228856E-01  1.8085484432E-01  1.0182976685E+00
                       6.7294603748E-01  1.0064064900E+00  1.6470840596E-01
                       7.5192487310E-01  3.9109521719E-01  9.0081869739E-01
                       6.6803526284E-01  3.4888369498E-01  5.0703291527E-01
                       5.9015007653E-01  5.1647537847E-01  6.8923107131E-01
                       8.5432712028E-01  9.0364336179E-02  1.3814139764E-02
                       9.0546717515E-01  2.7935038181E-01  9.5008606976E-01
                       7.4111890351E-01  2.0500814918E-01  7.6316157132E-01
                       3.5478608710E-01  5.8233240556E-01  1.0288549687E-02
                       4.0566946859E-01  7.6125405894E-01  7.9793053433E-01
                       2.4431752415E-01  6.3984128863E-01  6.1404166917E-01
                       1.9136530956E-01  4.6962325183E-01  1.9358218967E-01
                       5.2343519491E-02  5.6438311645E-01  9.4071473138E-01
                       9.8755443579E-01  5.7952433064E-01  3.2016320563E-01
                       3.8956716201E-01  9.1904936729E-01  4.9265567458E-01
                       3.3488353823E-01  7.5051804285E-01  2.8344057055E-01
                       5.0322137584E-01  8.7744228593E-01  1.0202951531E-01
                       6.4520461910E-02 -8.9327779811E-03  6.3950152996E-01
                       2.3951983947E-01  9.1860967311E-01  8.2187225059E-01
                       1.6890932326E-01  8.2743878694E-01  4.8666200929E-01
                       6.8281210599E-01  5.0214908532E-01  2.3012180056E-01
                       4.8357517923E-01  6.0459874834E-01  3.4469625587E-01
                       5.7870465716E-01  6.5971516919E-01  1.0034403054E+00
                       8.4071308167E-01  5.9013866824E-01 -1.0271358105E-03
                       8.9441076224E-01  7.7901660164E-01  9.4725363113E-01
                       7.3121104979E-01  7.0412849851E-01  7.4445096114E-01
                       5.9743078412E-01  2.8472994714E-02  7.2395433968E-01
                       7.4251323419E-01  8.8926636245E-01  9.0294316495E-01
                       6.8619940468E-01  8.8683915408E-01  4.6865881630E-01
                       1.6182477609E-02  7.8312900604E-01  2.8728111401E-01
                       9.0523562769E-01  8.4987036746E-01  5.6943765587E-01
                       8.1275742064E-01  7.4337737755E-01  2.8141874277E-01
                       5.4786829919E-02 -4.5038848353E-02  2.5653034399E-02
                       2.2181069999E-01  2.5192094433E-01  8.0538949748E-01
                       1.0139563846E+00  2.5628307225E-01  3.1482041478E-01
                       7.7932198844E-01  5.0083799910E-01  6.3802601783E-01
                       2.3133539508E-01  7.1930083500E-01  9.3037166917E-01
                       5.1951084209E-01  7.9159941180E-01  3.9605035592E-01
                       5.2241756709E-01  4.6688629917E-01  1.1681036830E-01
                       7.8803850539E-01  1.0118678918E+00  6.5319010090E-01
            znucl       57.00000   42.00000    8.00000
 
================================================================================


- Timing analysis has been suppressed with timopt=0



================================================================================

 Suggested references for the acknowledgment of ABINIT usage.

 The users of ABINIT have little formal obligations with respect to the ABINIT group
 (those specified in the GNU General Public License, http://www.gnu.org/copyleft/gpl.txt).
 However, it is common practice in the scientific literature,
 to acknowledge the efforts of people that have made the research possible.
 In this spirit, please find below suggested citations of work written by ABINIT developers,
 corresponding to implementations inside of ABINIT that you have used in the present run.
 Note also that it will be of great value to readers of publications presenting these results,
 to read papers enabling them to understand the theoretical formalism and details
 of the ABINIT implementation.
 For information on why they are suggested, see also https://docs.abinit.org/theory/acknowledgments.
-
- [1] Implementation of the Projector Augmented-Wave Method in the ABINIT code.
- M. Torrent, F. Jollet, F. Bottin, G. Zerah, and X. Gonze Comput. Mat. Science 42, 337, (2008).
- Comment: PAW calculations. Strong suggestion to cite this paper.
- DOI and bibtex: see https://docs.abinit.org/theory/bibliography/#torrent2008
-
- [2] Libxc: A library of exchange and correlation functionals for density functional theory.
- M.A.L. Marques, M.J.T. Oliveira, T. Burnus, Computer Physics Communications 183, 2227 (2012).
- Comment: to be cited when LibXC is used (negative value of ixc)
- Strong suggestion to cite this paper.
- DOI and bibtex: see https://docs.abinit.org/theory/bibliography/#marques2012
-
- [3] Large scale ab initio calculations based on three levels of parallelization
- F. Bottin, S. Leroux, A. Knyazev, G. Zerah, Comput. Mat. Science 42, 329, (2008).
- Comment: in case LOBPCG algorithm is used (wfoptalg=4/14/114).
- Strong suggestion to cite this paper in your publications.
- This paper is also available at http://www.arxiv.org/abs/0707.3405
- DOI and bibtex: see https://docs.abinit.org/theory/bibliography/#bottin2008
-
- [4] The Abinit project: Impact, environment and recent developments.
- Computer Phys. Comm. 248, 107042 (2020).
- X.Gonze, B. Amadon, G. Antonius, F.Arnardi, L.Baguet, J.-M.Beuken,
- J.Bieder, F.Bottin, J.Bouchet, E.Bousquet, N.Brouwer, F.Bruneval,
- G.Brunin, T.Cavignac, J.-B. Charraud, Wei Chen, M.Cote, S.Cottenier,
- J.Denier, G.Geneste, Ph.Ghosez, M.Giantomassi, Y.Gillet, O.Gingras,
- D.R.Hamann, G.Hautier, Xu He, N.Helbig, N.Holzwarth, Y.Jia, F.Jollet,
- W.Lafargue-Dit-Hauret, K.Lejaeghere, M.A.L.Marques, A.Martin, C.Martins,
- H.P.C. Miranda, F.Naccarato, K. Persson, G.Petretto, V.Planes, Y.Pouillon,
- S.Prokhorenko, F.Ricci, G.-M.Rignanese, A.H.Romero, M.M.Schmitt, M.Torrent,
- M.J.van Setten, B.Van Troeye, M.J.Verstraete, G.Zerah and J.W.Zwanzig
- Comment: the fifth generic paper describing the ABINIT project.
- Note that a version of this paper, that is not formatted for Computer Phys. Comm. 
- is available at https://www.abinit.org/sites/default/files/ABINIT20.pdf .
- The licence allows the authors to put it on the Web.
- DOI and bibtex: see https://docs.abinit.org/theory/bibliography/#gonze2020
-
- [5] ABINIT: Overview, and focus on selected capabilities
- J. Chem. Phys. 152, 124102 (2020).
- A. Romero, D.C. Allan, B. Amadon, G. Antonius, T. Applencourt, L.Baguet,
- J.Bieder, F.Bottin, J.Bouchet, E.Bousquet, F.Bruneval,
- G.Brunin, D.Caliste, M.Cote,
- J.Denier, C. Dreyer, Ph.Ghosez, M.Giantomassi, Y.Gillet, O.Gingras,
- D.R.Hamann, G.Hautier, F.Jollet, G. Jomard,
- A.Martin, 
- H.P.C. Miranda, F.Naccarato, G.Petretto, N.A. Pike, V.Planes,
- S.Prokhorenko, T. Rangel, F.Ricci, G.-M.Rignanese, M.Royo, M.Stengel, M.Torrent,
- M.J.van Setten, B.Van Troeye, M.J.Verstraete, J.Wiktor, J.W.Zwanziger, and X.Gonze.
- Comment: a global overview of ABINIT, with focus on selected capabilities .
- Note that a version of this paper, that is not formatted for J. Chem. Phys 
- is available at https://www.abinit.org/sites/default/files/ABINIT20_JPC.pdf .
- The licence allows the authors to put it on the Web.
- DOI and bibtex: see https://docs.abinit.org/theory/bibliography/#romero2020
-
- [6] Recent developments in the ABINIT software package.
- Computer Phys. Comm. 205, 106 (2016).
- X.Gonze, F.Jollet, F.Abreu Araujo, D.Adams, B.Amadon, T.Applencourt,
- C.Audouze, J.-M.Beuken, J.Bieder, A.Bokhanchuk, E.Bousquet, F.Bruneval
- D.Caliste, M.Cote, F.Dahm, F.Da Pieve, M.Delaveau, M.Di Gennaro,
- B.Dorado, C.Espejo, G.Geneste, L.Genovese, A.Gerossier, M.Giantomassi,
- Y.Gillet, D.R.Hamann, L.He, G.Jomard, J.Laflamme Janssen, S.Le Roux,
- A.Levitt, A.Lherbier, F.Liu, I.Lukacevic, A.Martin, C.Martins,
- M.J.T.Oliveira, S.Ponce, Y.Pouillon, T.Rangel, G.-M.Rignanese,
- A.H.Romero, B.Rousseau, O.Rubel, A.A.Shukri, M.Stankovski, M.Torrent,
- M.J.Van Setten, B.Van Troeye, M.J.Verstraete, D.Waroquier, J.Wiktor,
- B.Xu, A.Zhou, J.W.Zwanziger.
- Comment: the fourth generic paper describing the ABINIT project.
- Note that a version of this paper, that is not formatted for Computer Phys. Comm. 
- is available at https://www.abinit.org/sites/default/files/ABINIT16.pdf .
- The licence allows the authors to put it on the Web.
- DOI and bibtex: see https://docs.abinit.org/theory/bibliography/#gonze2016
-
- Proc.   0 individual time (sec): cpu=      10525.0  wall=      10601.3
 
================================================================================
 
 Calculation completed.
.Delivered   1 WARNINGs and   0 COMMENTs to log file.
+Overall time at end (sec) : cpu=     632615.6  wall=     636067.5
