
.Version 9.3.2 of ABINIT 
.(MPI version, prepared for a x86_64_linux_intel19.1 computer) 

.Copyright (C) 1998-2020 ABINIT group . 
 ABINIT comes with ABSOLUTELY NO WARRANTY.
 It is free software, and you are welcome to redistribute it
 under certain conditions (GNU General Public License,
 see ~abinit/COPYING or http://www.gnu.org/copyleft/gpl.txt).

 ABINIT is a project of the Universite Catholique de Louvain,
 Corning Inc. and other collaborators, see ~abinit/doc/developers/contributors.txt .
 Please read https://docs.abinit.org/theory/acknowledgments for suggested
 acknowledgments of the ABINIT effort.
 For more information, see https://www.abinit.org .

.Starting date : Thu  2 Dec 2021.
- ( at 15h45 )
  
- input  file    -> abi.in
- output file    -> abi.out
- root for input  files -> abi-i
- root for output files -> abi-o
 
- inpspheads : Reading pseudopotential header in XML form from 
-   ~/ABINIT_PAW_PBE/paw_pbe_standard/La.xml
- inpspheads : Reading pseudopotential header in XML form from 
-   ~/ABINIT_PAW_PBE/paw_pbe_standard/Mo.xml
- inpspheads : Reading pseudopotential header in XML form from 
-   ~/ABINIT_PAW_PBE/paw_pbe_standard/O.xml
 
 Symmetries : space group P2_1 (#  4); Bravais mP (primitive monocl.)
================================================================================
 Values of the parameters that define the memory need of the present run
     intxc =       0    ionmov =       0      iscf =       7    lmnmax =      32
     lnmax =       8     mgfft =      75  mpssoang =       4    mqgrid =    3334
     natom =      26  nloc_mem =       2    nspden =       1   nspinor =       1
    nsppol =       1      nsym =       2    n1xccc =       1    ntypat =       3
    occopt =       1   xclevel =       2
-    mband =         104        mffmem =           1         mkmem =           1
       mpw =        1933          nfft =       81000          nkpt =           2
Pmy_natom=         7
 PAW method is used; the additional fine FFT grid is defined by:
   mgfftf=        75    nfftf =     81000
================================================================================
P This job should need less than                      65.442 Mbytes of memory.
  Rough estimation (10% accuracy) of disk space for files :
_ WF disk file :     30.677 Mbytes ; DEN or POT disk file :      0.620 Mbytes.
================================================================================
 
--------------------------------------------------------------------------------
------------- Echo of variables that govern the present computation ------------
--------------------------------------------------------------------------------
-
- outvars: echo of selected default values                                      
-   iomode0 =  0 , fftalg0 =512 , wfoptalg0 = 10
-
- outvars: echo of global parameters not present in the input file              
-  max_nthreads =    1
-
 -outvars: echo values of preprocessed input variables --------
-          iomode           1
            acell      1.0000000000E+00  1.0000000000E+00  1.0000000000E+00 Bohr
              amu      1.38905500E+02  9.59400000E+01  1.59994000E+01
        autoparal           1
           bandpp          26
     densfor_pred           6
           diemac      4.00000000E+00
             ecut      3.00000000E+01 Hartree
           ecutsm      5.00000000E-01 Hartree
-          fftalg         401
             iscf           7
              ixc     -116133
              kpt      2.50000000E-01  2.50000000E-01  2.50000000E-01
                      -2.50000000E-01  2.50000000E-01  2.50000000E-01
         kptrlatt        2    0    0      0    2    0      0    0    2
          kptrlen      2.66224585E+01
P           mkmem           1
            natom          26
            nband         104
            ngfft          72      75      75
          ngfftdg          72      75      75
             nkpt           2
-          npband           2
-           npfft           5
-           npkpt           2
            nstep           1
             nsym           2
           ntypat           3
              occ      2.000000  2.000000  2.000000  2.000000  2.000000  2.000000
                       2.000000  2.000000  2.000000  2.000000  2.000000  2.000000
                       2.000000  2.000000  2.000000  2.000000  2.000000  2.000000
                       2.000000  2.000000  2.000000  2.000000  2.000000  2.000000
                       2.000000  2.000000  2.000000  2.000000  2.000000  2.000000
                       2.000000  2.000000  2.000000  2.000000  2.000000  2.000000
                       2.000000  2.000000  2.000000  2.000000  2.000000  2.000000
                       2.000000  2.000000  2.000000  2.000000  2.000000  2.000000
                       2.000000  2.000000  2.000000  2.000000  2.000000  2.000000
                       2.000000  2.000000  2.000000  2.000000  2.000000  2.000000
                       2.000000  2.000000  2.000000  2.000000  2.000000  2.000000
                       2.000000  2.000000  2.000000  2.000000  2.000000  2.000000
                       2.000000  2.000000  2.000000  2.000000  2.000000  2.000000
                       2.000000  2.000000  2.000000  2.000000  2.000000  2.000000
                       2.000000  2.000000  2.000000  2.000000  2.000000  2.000000
                       2.000000  2.000000  2.000000  2.000000  2.000000  2.000000
                       2.000000  2.000000  2.000000  2.000000  2.000000  2.000000
                       2.000000  2.000000
        paral_kgb           1
        pawecutdg      3.00000000E+01 Hartree
         pawmixdg           1
         pawxcdev           0
           prtcif           1
           prteig           0
            rprim      1.3570505761E+01  0.0000000000E+00 -7.0494232710E-01
                       0.0000000000E+00  1.3311229233E+01  0.0000000000E+00
                      -7.0241102225E-01  0.0000000000E+00  1.3575608400E+01
           shiftk      5.00000000E-01  5.00000000E-01  5.00000000E-01
          spgroup           4
           symrel      1  0  0   0  1  0   0  0  1      -1  0  0   0  1  0   0  0 -1
            tnons      0.0000000  0.0000000  0.0000000     0.0000000  0.5000000  0.5000000
           tolvrs      1.00000000E-20
            typat      1  1  1  1  2  2  2  2  3  3  3  3  3  3  3  3  3  3  3  3
                       3  3  3  3  3  3
           useylm           1
         wfoptalg         114
              wtk        0.50000    0.50000
           xangst      6.1180510509E+00  6.1695625219E+00  5.6646898390E+00
                       2.2405882349E+00  4.4403389898E+00  8.0310322220E-01
                       5.0560145096E-01  2.6475629577E+00  4.7381245851E+00
                       4.7547641709E+00  9.1833942562E-01  2.4158086439E+00
                       1.3761677012E+00  1.1888979047E+00  1.3991020946E+00
                       4.6241124083E+00  2.3844673785E+00  6.0665363262E+00
                       5.6191847047E+00  4.7108974688E+00  1.8198097715E+00
                       1.9995400935E+00  5.9064669427E+00  4.3362780979E+00
                       2.7783450328E+00  2.2286065458E+00  1.9060413290E+00
                       5.5165904096E+00  1.2731082622E+00  4.6846114144E+00
                       4.2170073730E+00  5.7506061099E+00  1.3128705371E+00
                       1.1070620922E+00  4.7951078263E+00  5.7182030097E+00
                       7.2416976159E+00  1.3300329604E+00  2.1953324202E+00
                       3.0196313533E+00  2.3704148741E+00  5.3598351926E+00
                      -2.4634521001E-01  4.8520325245E+00  1.0235794459E+00
                       3.6040211485E+00  5.8924144382E+00  5.0429792315E+00
                       1.3976560537E+00  6.7394075668E+00  4.4161731562E-01
                       8.9575135993E-01  1.8421089158E-01  4.9690337562E+00
                       5.7279011419E+00  3.7062104557E+00  5.4337806679E+00
                       5.5976963521E+00  3.2174080026E+00  2.7772945505E+00
                       5.8490029844E-01  2.3431859759E+00  7.2557854015E+00
                       6.0387522034E+00  5.8651855401E+00  3.1470290225E+00
                       1.6170721904E+00  4.4537110537E+00  3.2350902583E+00
                       5.3782802154E+00  9.3171148956E-01 -1.6178392183E-02
                       4.2234088018E+00  3.4599503020E+00  7.5551878867E+00
                       2.4002437000E+00  6.9819498661E+00  2.8476265373E+00
            xcart      1.1561440953E+01  1.1658783526E+01  1.0704712423E+01
                       4.2340981406E+00  8.3910246278E+00  1.5176451464E+00
                       9.5544827470E-01  5.0031689097E+00  8.9537578493E+00
                       8.9852021095E+00  1.7354100115E+00  4.5652167265E+00
                       2.6005800682E+00  2.2466914398E+00  2.6439197908E+00
                       8.7383060594E+00  4.5059903182E+00  1.1464092232E+01
                       1.0618720182E+01  8.9023060561E+00  3.4389420821E+00
                       3.7785831685E+00  1.1161604935E+01  8.1943780411E+00
                       5.2503112147E+00  4.2114560295E+00  3.6018961098E+00
                       1.0424845061E+01  2.4058259530E+00  8.8526326122E+00
                       7.9689890354E+00  1.0867070646E+01  2.4809657631E+00
                       2.0920441664E+00  9.0614405694E+00  1.0805837661E+01
                       1.3684825231E+01  2.5133980428E+00  4.1485770448E+00
                       5.7062762801E+00  4.4794349333E+00  1.0128620631E+01
                      -4.6552498107E-01  9.1690126591E+00  1.9342848281E+00
                       6.8106129478E+00  1.1135049550E+01  9.5298496414E+00
                       2.6411871695E+00  1.2735634599E+01  8.3453578206E-01
                       1.6927247534E+00  3.4810813579E-01  9.3901129443E+00
                       1.0824164474E+01  7.0037227521E+00  1.0268357328E+01
                       1.0578113081E+01  6.0800199827E+00  5.2483260908E+00
                       1.1053013791E+00  4.4279797729E+00  1.3711447288E+01
                       1.1411587849E+01  1.1083594389E+01  5.9470229848E+00
                       3.0558235770E+00  8.4162941665E+00  6.1134346033E+00
                       1.0163476673E+01  1.7606795501E+00 -3.0572730497E-02
                       7.9810859827E+00  6.5383585042E+00  1.4277235988E+01
                       4.5358032452E+00  1.3193973121E+01  5.3812342843E+00
             xred      8.9517375790E-01  8.7586077305E-01  8.3500922843E-01
                       3.1865021796E-01  6.3037188235E-01  1.2833864393E-01
                       1.0482624210E-01  3.7586077305E-01  6.6499077157E-01
                       6.8134978204E-01  1.3037188235E-01  3.7166135607E-01
                       2.0225889264E-01  1.6878166550E-01  2.0525788334E-01
                       6.8948160615E-01  3.3851045906E-01  8.8026529991E-01
                       7.9774110736E-01  6.6878166550E-01  2.9474211666E-01
                       3.1051839385E-01  8.3851045906E-01  6.1973470009E-01
                       4.0170408119E-01  3.1638370551E-01  2.8618049410E-01
                       8.0411266291E-01  1.8073657293E-01  6.9385366656E-01
                       5.9829591881E-01  8.1638370551E-01  2.1381950590E-01
                       1.9588733709E-01  6.8073657293E-01  8.0614633344E-01
                       1.0270018430E+00  1.8881787691E-01  3.5891976038E-01
                       4.6034604132E-01  3.3651549793E-01  7.6999407563E-01
                      -2.7001842981E-02  6.8881787691E-01  1.4108023962E-01
                       5.3965395868E-01  8.3651549793E-01  7.3000592437E-01
                       1.9834197902E-01  9.5675871675E-01  7.1772506219E-02
                       1.6097017658E-01  2.6151464279E-02  7.0004874590E-01
                       8.3902982342E-01  5.2615146428E-01  7.9995125410E-01
                       8.0165802098E-01  4.5675871675E-01  4.2822749378E-01
                       1.3408722935E-01  3.3264995257E-01  1.0169688639E+00
                       8.6591277065E-01  8.3264995257E-01  4.8303113608E-01
                       2.4915981148E-01  6.3227024487E-01  4.6326306088E-01
                       7.5084018852E-01  1.3227024487E-01  3.6736939118E-02
                       6.4428693217E-01  4.9119118827E-01  1.0851389259E+00
                       3.5571306783E-01  9.9119118827E-01  4.1486107408E-01
            znucl       57.00000   42.00000    8.00000
 
================================================================================
 
 chkinp: Checking input parameters for consistency.
 
================================================================================
== DATASET  1 ==================================================================
-   mpi_nproc: 20, omp_nthreads: 1 (-1 if OMP is not activated)
 

--- !DatasetInfo
iteration_state: {dtset: 1, }
dimensions: {natom: 26, nkpt: 2, mband: 104, nsppol: 1, nspinor: 1, nspden: 1, mpw: 1933, }
cutoff_energies: {ecut:  30.0, pawecutdg:  30.0, }
electrons: {nelect:   2.08000000E+02, charge:   0.00000000E+00, occopt:   1.00000000E+00, tsmear:   1.00000000E-02, }
meta: {optdriver: 0, ionmov: 0, optcell: 0, iscf: 7, paral_kgb: 1, }
...

 Real(R)+Recip(G) space primitive vectors, cartesian coordinates (Bohr,Bohr^-1):
 R(1)= 13.5705058  0.0000000 -0.7049423  G(1)=  0.0738878  0.0000000  0.0038230
 R(2)=  0.0000000 13.3112292  0.0000000  G(2)=  0.0000000  0.0751245  0.0000000
 R(3)= -0.7024110  0.0000000 13.5756084  G(3)=  0.0038368  0.0000000  0.0738600
 Unit cell volume ucvol=  2.4457083E+03 bohr^3
 Angles (23,13,12)=  9.00000000E+01  9.59355316E+01  9.00000000E+01 degrees
 
 Coarse grid specifications (used for wave-functions):
 
 getcut: wavevector=  0.0000  0.0000  0.0000  ngfft=  72  75  75
         ecut(hartree)=     30.000   => boxcut(ratio)=   2.14901
 
 Fine grid specifications (used for densities):
 
 getcut: wavevector=  0.0000  0.0000  0.0000  ngfft=  72  75  75
         ecut(hartree)=     30.000   => boxcut(ratio)=   2.14901
 
--- Pseudopotential description ------------------------------------------------
- pspini: atom type   1  psp file is ~/ABINIT_PAW_PBE/paw_pbe_standard/La.xml
- pspatm: opening atomic psp file    ~/ABINIT_PAW_PBE/paw_pbe_standard/La.xml
- pspatm : Reading pseudopotential header in XML form from ~/ABINIT_PAW_PBE/paw_pbe_standard/La.xml
 Pseudopotential format is: paw10
 basis_size (lnmax)=  8 (lmn_size= 32), orbitals=   0   0   1   1   2   2   3   3
 Spheres core radius: rc_sph= 2.51647158
 1 radial meshes are used:
  - mesh 1: r(i)=AA*[exp(BB*(i-1))-1], size=1500 , AA= 0.15403E-03 BB= 0.87795E-02
 Shapefunction is SIN type: shapef(r)=[sin(pi*r/rshp)/(pi*r/rshp)]**2
 Radius for shape functions =  2.30494653
 mmax= 1500
 Radial grid used for partial waves is grid 1
 Radial grid used for projectors is grid 1
 Radial grid used for (t)core density is grid 1
 Radial grid used for Vloc is grid 1
 Radial grid used for pseudo valence density is grid 1
 Mesh size for Vloc has been set to 1342 to avoid numerical noise.
 Compensation charge density is not taken into account in XC energy/potential
 pspatm: atomic psp has been read  and splines computed
 
- pspini: atom type   2  psp file is ~/ABINIT_PAW_PBE/paw_pbe_standard/Mo.xml
- pspatm: opening atomic psp file    ~/ABINIT_PAW_PBE/paw_pbe_standard/Mo.xml
- pspatm : Reading pseudopotential header in XML form from ~/ABINIT_PAW_PBE/paw_pbe_standard/Mo.xml
 Pseudopotential format is: paw10
 basis_size (lnmax)=  6 (lmn_size= 18), orbitals=   0   0   1   1   2   2
 Spheres core radius: rc_sph= 2.20000000
 1 radial meshes are used:
  - mesh 1: r(i)=AA*[exp(BB*(i-1))-1], size= 846 , AA= 0.34789E-03 BB= 0.14611E-01
 Shapefunction is SIN type: shapef(r)=[sin(pi*r/rshp)/(pi*r/rshp)]**2
 Radius for shape functions =  1.90088266
 mmax=  846
 Radial grid used for partial waves is grid 1
 Radial grid used for projectors is grid 1
 Radial grid used for (t)core density is grid 1
 Radial grid used for Vloc is grid 1
 Radial grid used for pseudo valence density is grid 1
 Mesh size for Vloc has been set to  751 to avoid numerical noise.
 Compensation charge density is not taken into account in XC energy/potential
 pspatm: atomic psp has been read  and splines computed
 
- pspini: atom type   3  psp file is ~/ABINIT_PAW_PBE/paw_pbe_standard/O.xml
- pspatm: opening atomic psp file    ~/ABINIT_PAW_PBE/paw_pbe_standard/O.xml
- pspatm : Reading pseudopotential header in XML form from ~/ABINIT_PAW_PBE/paw_pbe_standard/O.xml
 Pseudopotential format is: paw10
 basis_size (lnmax)=  4 (lmn_size=  8), orbitals=   0   0   1   1
 Spheres core radius: rc_sph= 1.41465230
 1 radial meshes are used:
  - mesh 1: r(i)=AA*[exp(BB*(i-1))-1], size=2001 , AA= 0.72565E-03 BB= 0.58052E-02
 Shapefunction is SIN type: shapef(r)=[sin(pi*r/rshp)/(pi*r/rshp)]**2
 Radius for shape functions =  1.20231231
 mmax= 2001
 Radial grid used for partial waves is grid 1
 Radial grid used for projectors is grid 1
 Radial grid used for (t)core density is grid 1
 Radial grid used for Vloc is grid 1
 Radial grid used for pseudo valence density is grid 1
 Mesh size for Vloc has been set to 1762 to avoid numerical noise.
 Compensation charge density is not taken into account in XC energy/potential
 pspatm: atomic psp has been read  and splines computed
 
   8.97881771E+04                                ecore*ucvol(ha*bohr**3)
--------------------------------------------------------------------------------
 
_setup2: Arith. and geom. avg. npw (full set) are    1931.000    1930.999
 
================================================================================

--- !BeginCycle
iteration_state: {dtset: 1, }
solver: {iscf: 7, nstep: 1, nline: 4, wfoptalg: 114, }
tolerances: {tolvrs: 1.00E-20, }
...
 
     iter   Etot(hartree)      deltaE(h)  residm     vres2
 ETOT  1  -689.61375412836    -6.896E+02 1.884E-02 2.063E+04
 
 Cartesian components of stress tensor (hartree/bohr^3)
  sigma(1 1)= -2.60694400E-03  sigma(3 2)=  0.00000000E+00
  sigma(2 2)= -2.40228044E-03  sigma(3 1)=  1.92721599E-04
  sigma(3 3)= -2.60307226E-03  sigma(2 1)=  0.00000000E+00
 
 
 scprqt:  WARNING -
  nstep=    1 was not enough SCF cycles to converge;
  potential residual=  2.063E+04 exceeds tolvrs=  1.000E-20
 

--- !ResultsGS
iteration_state: {dtset: 1, }
comment   : Summary of ground state results
lattice_vectors:
- [ 13.5705058,   0.0000000,  -0.7049423, ]
- [  0.0000000,  13.3112292,   0.0000000, ]
- [ -0.7024110,   0.0000000,  13.5756084, ]
lattice_lengths: [  13.58880,   13.31123,   13.59377, ]
lattice_angles: [ 90.000,  95.936,  90.000, ] # degrees, (23, 13, 12)
lattice_volume:   2.4457083E+03
convergence: {deltae: -6.896E+02, res2:  2.063E+04, residm:  1.884E-02, diffor: null, }
etotal    :  -6.89613754E+02
entropy   :   0.00000000E+00
fermie    :   1.22200520E-01
cartesian_stress_tensor: # hartree/bohr^3
- [ -2.60694400E-03,   0.00000000E+00,   1.92721599E-04, ]
- [  0.00000000E+00,  -2.40228044E-03,   0.00000000E+00, ]
- [  1.92721599E-04,   0.00000000E+00,  -2.60307226E-03, ]
pressure_GPa:   7.4654E+01
xred      :
- [  8.9517E-01,   8.7586E-01,   8.3501E-01, La]
- [  3.1865E-01,   6.3037E-01,   1.2834E-01, La]
- [  1.0483E-01,   3.7586E-01,   6.6499E-01, La]
- [  6.8135E-01,   1.3037E-01,   3.7166E-01, La]
- [  2.0226E-01,   1.6878E-01,   2.0526E-01, Mo]
- [  6.8948E-01,   3.3851E-01,   8.8027E-01, Mo]
- [  7.9774E-01,   6.6878E-01,   2.9474E-01, Mo]
- [  3.1052E-01,   8.3851E-01,   6.1973E-01, Mo]
- [  4.0170E-01,   3.1638E-01,   2.8618E-01,  O]
- [  8.0411E-01,   1.8074E-01,   6.9385E-01,  O]
- [  5.9830E-01,   8.1638E-01,   2.1382E-01,  O]
- [  1.9589E-01,   6.8074E-01,   8.0615E-01,  O]
- [  1.0270E+00,   1.8882E-01,   3.5892E-01,  O]
- [  4.6035E-01,   3.3652E-01,   7.6999E-01,  O]
- [ -2.7002E-02,   6.8882E-01,   1.4108E-01,  O]
- [  5.3965E-01,   8.3652E-01,   7.3001E-01,  O]
- [  1.9834E-01,   9.5676E-01,   7.1773E-02,  O]
- [  1.6097E-01,   2.6151E-02,   7.0005E-01,  O]
- [  8.3903E-01,   5.2615E-01,   7.9995E-01,  O]
- [  8.0166E-01,   4.5676E-01,   4.2823E-01,  O]
- [  1.3409E-01,   3.3265E-01,   1.0170E+00,  O]
- [  8.6591E-01,   8.3265E-01,   4.8303E-01,  O]
- [  2.4916E-01,   6.3227E-01,   4.6326E-01,  O]
- [  7.5084E-01,   1.3227E-01,   3.6737E-02,  O]
- [  6.4429E-01,   4.9119E-01,   1.0851E+00,  O]
- [  3.5571E-01,   9.9119E-01,   4.1486E-01,  O]
cartesian_forces: # hartree/bohr
- [  5.18990828E-02,  -1.00983154E-02,  -5.17896835E-02, ]
- [ -6.56691498E-02,   3.66348791E-02,  -4.14539327E-02, ]
- [ -5.18990828E-02,  -1.00983154E-02,   5.17896835E-02, ]
- [  6.56691498E-02,   3.66348791E-02,   4.14539327E-02, ]
- [  1.58084877E-02,  -8.81800102E-02,   3.12568635E-02, ]
- [ -8.03645604E-02,   1.16932495E-02,   1.00738897E-01, ]
- [ -1.58084877E-02,  -8.81800102E-02,  -3.12568635E-02, ]
- [  8.03645604E-02,   1.16932495E-02,  -1.00738897E-01, ]
- [ -2.54414922E-02,  -8.54853422E-03,  -2.10266901E-02, ]
- [ -3.22002212E-02,   3.22447609E-02,   4.51526545E-02, ]
- [  2.54414922E-02,  -8.54853422E-03,   2.10266901E-02, ]
- [  3.22002212E-02,   3.22447609E-02,  -4.51526545E-02, ]
- [  1.87049329E-02,   4.89853708E-03,  -2.31812078E-02, ]
- [  1.56941480E-02,  -5.62460929E-03,   3.35231089E-03, ]
- [ -1.87049329E-02,   4.89853708E-03,   2.31812078E-02, ]
- [ -1.56941480E-02,  -5.62460929E-03,  -3.35231089E-03, ]
- [ -2.90100994E-03,   2.74050905E-02,   1.92668484E-02, ]
- [  2.62710066E-02,  -8.25780658E-03,  -9.16518306E-03, ]
- [ -2.62710066E-02,  -8.25780658E-03,   9.16518306E-03, ]
- [  2.90100994E-03,   2.74050905E-02,  -1.92668484E-02, ]
- [ -5.26897004E-03,  -1.63538354E-02,   1.60492305E-02, ]
- [  5.26897004E-03,  -1.63538354E-02,  -1.60492305E-02, ]
- [  3.56695079E-03,   2.18258504E-02,   9.29852505E-03, ]
- [ -3.56695079E-03,   2.18258504E-02,  -9.29852505E-03, ]
- [  2.40567888E-02,   2.36074354E-03,   4.75366360E-03, ]
- [ -2.40567888E-02,   2.36074354E-03,  -4.75366360E-03, ]
force_length_stats: {min:   1.70053080E-02, max:   1.29396755E-01, mean:   5.11061808E-02, }
...

 Integrated electronic density in atomic spheres:
 ------------------------------------------------
 Atom  Sphere_radius  Integrated_density
    1        2.51647          7.75060634
    2        2.51647          7.78737150
    3        2.51647          7.74502756
    4        2.51647          7.78526908
    5        2.20000          9.86834981
    6        2.20000          9.74799778
    7        2.20000          9.87509325
    8        2.20000          9.75462461
    9        1.41465          5.14207175
   10        1.41465          5.17020686
   11        1.41465          5.14767386
   12        1.41465          5.15207809
   13        1.41465          5.12467905
   14        1.41465          5.05503747
   15        1.41465          5.12577173
   16        1.41465          5.05811323
   17        1.41465          5.14007710
   18        1.41465          5.13516556
   19        1.41465          5.13096827
   20        1.41465          5.13841979
   21        1.41465          5.09717816
   22        1.41465          5.09311674
   23        1.41465          5.10010568
   24        1.41465          5.08138860
   25        1.41465          5.06826731
   26        1.41465          5.07115451
 
 PAW TEST:
 ==== Compensation charge inside spheres ============
 The following values must be close to each other ...
 Compensation charge over spherical meshes =     21.296790261330969
 Compensation charge over fft grid         =     21.296722781926931
 
 ==== Results concerning PAW augmentation regions ====
 
 Total pseudopotential strength Dij (hartree):
 Atom #  1
   0.48403  -0.11969   0.00013  -0.00027   0.00047   0.00007  -0.00015   0.00026  -0.00008  -0.00008  -0.00002   0.00001 ...
  -0.11969   0.02364  -0.00002   0.00005  -0.00008   0.00000  -0.00000   0.00000   0.00001   0.00001   0.00000  -0.00000 ...
   0.00013  -0.00002  -0.17970  -0.00008  -0.00008   0.04234  -0.00010  -0.00009   0.00012  -0.00009  -0.00002  -0.00001 ...
  -0.00027   0.00005  -0.00008  -0.17979   0.00001  -0.00010   0.04223   0.00002  -0.00001   0.00004  -0.00008   0.00013 ...
   0.00047  -0.00008  -0.00008   0.00001  -0.17980  -0.00009   0.00002   0.04222   0.00003  -0.00001  -0.00008  -0.00008 ...
   0.00007   0.00000   0.04234  -0.00010  -0.00009   0.31868  -0.00003  -0.00003   0.00011  -0.00009  -0.00002  -0.00001 ...
  -0.00015  -0.00000  -0.00010   0.04223   0.00002  -0.00003   0.31865   0.00000  -0.00001   0.00004  -0.00007   0.00012 ...
   0.00026   0.00000  -0.00009   0.00002   0.04222  -0.00003   0.00000   0.31864   0.00003  -0.00001  -0.00008  -0.00008 ...
  -0.00008   0.00001   0.00012  -0.00001   0.00003   0.00011  -0.00001   0.00003  -0.05840   0.00000   0.00003  -0.00003 ...
  -0.00008   0.00001  -0.00009   0.00004  -0.00001  -0.00009   0.00004  -0.00001   0.00000  -0.05840  -0.00001  -0.00003 ...
  -0.00002   0.00000  -0.00002  -0.00008  -0.00008  -0.00002  -0.00007  -0.00008   0.00003  -0.00001  -0.05841   0.00001 ...
   0.00001  -0.00000  -0.00001   0.00013  -0.00008  -0.00001   0.00012  -0.00008  -0.00003  -0.00003   0.00001  -0.05843 ...
   ...  only 12  components have been written...
 Atom # 26
   0.63450  -1.82614   0.00029  -0.00053   0.00006  -0.00200   0.00367  -0.00038
  -1.82614   5.31866  -0.00075   0.00138  -0.00014   0.00525  -0.00965   0.00101
   0.00029  -0.00075  -0.33368   0.00092  -0.00018   1.09789  -0.00477   0.00094
  -0.00053   0.00138   0.00092  -0.33412   0.00014  -0.00477   1.10016  -0.00072
   0.00006  -0.00014  -0.00018   0.00014  -0.33346   0.00094  -0.00072   1.09676
  -0.00200   0.00525   1.09789  -0.00477   0.00094  -0.97163   0.02377  -0.00466
   0.00367  -0.00965  -0.00477   1.10016  -0.00072   0.02377  -0.98295   0.00356
  -0.00038   0.00101   0.00094  -0.00072   1.09676  -0.00466   0.00356  -0.96597
 
 
 Augmentation waves occupancies Rhoij:
 Atom #  1
   2.01598  -0.05132   0.00144  -0.00520   0.00180  -0.00058   0.00198  -0.00050   0.00034   0.00268   0.00302  -0.00037 ...
  -0.05132   0.21264  -0.00268   0.01413  -0.00227   0.00276  -0.00839   0.00513  -0.00738  -0.01402  -0.00870  -0.00137 ...
   0.00144  -0.00268   2.04294  -0.00623  -0.00230  -0.01624   0.00244   0.00055   0.01407   0.01037   0.00081   0.01306 ...
  -0.00520   0.01413  -0.00623   2.03289   0.00081   0.00269  -0.01153  -0.00032   0.01313   0.00254   0.00162  -0.00030 ...
   0.00180  -0.00227  -0.00230   0.00081   2.03330   0.00047  -0.00004  -0.01127  -0.01249   0.00953  -0.00913   0.01542 ...
  -0.00058   0.00276  -0.01624   0.00269   0.00047   0.01529  -0.00165  -0.00072  -0.00184  -0.00539  -0.00109  -0.00357 ...
   0.00198  -0.00839   0.00244  -0.01153  -0.00004  -0.00165   0.01259   0.00010  -0.00453   0.00057  -0.00313   0.00309 ...
  -0.00050   0.00513   0.00055  -0.00032  -0.01127  -0.00072   0.00010   0.01254   0.00421  -0.00352   0.00044  -0.00659 ...
   0.00034  -0.00738   0.01407   0.01313  -0.01249  -0.00184  -0.00453   0.00421   0.08452  -0.00108   0.00406  -0.00533 ...
   0.00268  -0.01402   0.01037   0.00254   0.00953  -0.00539   0.00057  -0.00352  -0.00108   0.09199   0.00411  -0.00343 ...
   0.00302  -0.00870   0.00081   0.00162  -0.00913  -0.00109  -0.00313   0.00044   0.00406   0.00411   0.09444  -0.00162 ...
  -0.00037  -0.00137   0.01306  -0.00030   0.01542  -0.00357   0.00309  -0.00659  -0.00533  -0.00343  -0.00162   0.07691 ...
   ...  only 12  components have been written...
 Atom # 26
   1.99093   0.01048  -0.00775   0.01550  -0.00284  -0.00091   0.00170  -0.00074
   0.01048   0.00089  -0.00269   0.00261  -0.00051  -0.00011   0.00017  -0.00005
  -0.00775  -0.00269   1.89495  -0.03909   0.00331   0.01617  -0.00411   0.00011
   0.01550   0.00261  -0.03909   1.90214  -0.00524  -0.00350   0.01786   0.00010
  -0.00284  -0.00051   0.00331  -0.00524   1.87753   0.00013  -0.00081   0.01548
  -0.00091  -0.00011   0.01617  -0.00350   0.00013   0.00034  -0.00018   0.00003
   0.00170   0.00017  -0.00411   0.01786  -0.00081  -0.00018   0.00043  -0.00004
  -0.00074  -0.00005   0.00011   0.00010   0.01548   0.00003  -0.00004   0.00026
 
 
================================================================================
 
 ----iterations are completed or convergence reached----
 
 Mean square residual over all n,k,spin=   29.254E-05; max=  18.837E-03
 reduced coordinates (array xred) for   26 atoms
       0.895173757900      0.875860773050      0.835009228430
       0.318650217960      0.630371882350      0.128338643930
       0.104826242100      0.375860773050      0.664990771570
       0.681349782040      0.130371882350      0.371661356070
       0.202258892640      0.168781665500      0.205257883340
       0.689481606150      0.338510459060      0.880265299910
       0.797741107360      0.668781665500      0.294742116660
       0.310518393850      0.838510459060      0.619734700090
       0.401704081190      0.316383705510      0.286180494100
       0.804112662910      0.180736572930      0.693853666560
       0.598295918810      0.816383705510      0.213819505900
       0.195887337090      0.680736572930      0.806146333440
       1.027001842981      0.188817876910      0.358919760380
       0.460346041320      0.336515497930      0.769994075630
      -0.027001842981      0.688817876910      0.141080239620
       0.539653958680      0.836515497930      0.730005924370
       0.198341979020      0.956758716750      0.071772506219
       0.160970176580      0.026151464279      0.700048745900
       0.839029823420      0.526151464279      0.799951254100
       0.801658020980      0.456758716750      0.428227493781
       0.134087229350      0.332649952570      1.016968863915
       0.865912770650      0.832649952570      0.483031136085
       0.249159811480      0.632270244870      0.463263060882
       0.750840188520      0.132270244870      0.036736939118
       0.644286932170      0.491191188270      1.085138925915
       0.355713067830      0.991191188270      0.414861074085
 rms dE/dt=  4.8773E-01; max dE/dt=  1.4240E+00; dE/dt below (all hartree)
    1      -0.740805542368      0.161086919516      0.739530949698
    2       0.861940943434     -0.460989345290      0.516635622968
    3       0.740805542368      0.161086919516     -0.739530949698
    4      -0.861940943434     -0.460989345290     -0.516635622968
    5      -0.192494887421      1.200450258315     -0.413226882032
    6       1.161602842773     -0.128985596052     -1.424040772984
    7       0.192494887421      1.200450258315      0.413226882032
    8      -1.161602842773     -0.128985596052      1.424040772984
    9       0.330431313105      0.140457427233      0.267579726701
   10       0.468803304167     -0.402551475209     -0.635592546189
   11      -0.330431313105      0.140457427233     -0.267579726701
   12      -0.468803304167     -0.402551475209      0.635592546189
   13      -0.270176813938     -0.038539621308      0.327837550136
   14      -0.210614340348      0.101536392287     -0.034485917361
   15       0.270176813938     -0.038539621308     -0.327837550136
   16       0.210614340348      0.101536392287      0.034485917361
   17       0.052950189059     -0.338129513051     -0.263596889976
   18      -0.362971771445      0.136587484974      0.142875980761
   19       0.362971771445      0.136587484974     -0.142875980761
   20      -0.052950189059     -0.338129513051      0.263596889976
   21       0.082816370220      0.244355579947     -0.221579051016
   22      -0.082816370220      0.244355579947      0.221579051016
   23      -0.041850402364     -0.263862969012     -0.123727669199
   24       0.041850402364     -0.263862969012      0.123727669199
   25      -0.323111732263     -0.004758469747     -0.047636121850
   26       0.323111732263     -0.004758469747      0.047636121850
 
 cartesian coordinates (angstrom) at end:
    1      6.11805105086844     6.16956252185083     5.66468983897751
    2      2.24058823492134     4.44033898975985     0.80310322219549
    3      0.50560145095747     2.64756295771540     4.73812458509754
    4      4.75476417094323     0.91833942562443     2.41580864391593
    5      1.37616770118870     1.18889790465010     1.39910209461018
    6      4.62411240829685     2.38446737852920     6.06653632616694
    7      5.61918470467587     4.71089746878552     1.81980977150123
    8      1.99954009352906     5.90646694266462     4.33627809790811
    9      2.77834503281851     2.22860654581154     1.90604132900952
   10      5.51659040961637     1.27310826216558     4.68461141439923
   11      4.21700737304606     5.75060610994696     1.31287053710189
   12      1.10706209220954     4.79510782630100     5.71820300967582
   13      7.24169761587544     1.33003296035599     2.19533242017512
   14      3.01963135334769     2.37041487406855     5.35983519256397
   15     -0.24634521001087     4.85203252449141     1.02357944593629
   16      3.60402114847821     5.89241443820397     5.04297923151107
   17      1.39765605373157     6.73940756675253     0.44161731561696
   18      0.89575135993187     0.18421089158428     4.96903375620920
   19      5.72790114189404     3.70621045571970     5.43378066786585
   20      5.59769635213300     3.21740800261711     2.77729455049445
   21      0.58490029844283     2.34318597592242     7.25578540153820
   22      6.03875220338308     5.86518554005784     3.14702902253685
   23      1.61707219041559     4.45371105369587     3.23509025829486
   24      5.37828021544898     0.93171148956045    -0.01617839218345
   25      4.22340880182177     3.45995030198820     7.55518788672991
   26      2.40024370000414     6.98194986612362     2.84762653734514
 
 cartesian forces (hartree/bohr) at end:
    1      0.05189908281811    -0.01009831537752    -0.05178968346552
    2     -0.06566914976719     0.03663487912541    -0.04145393274534
    3     -0.05189908281811    -0.01009831537752     0.05178968346552
    4      0.06566914976719     0.03663487912541     0.04145393274534
    5      0.01580848770527    -0.08818001021034     0.03125686345260
    6     -0.08036456041446     0.01169324951080     0.10073889726829
    7     -0.01580848770527    -0.08818001021034    -0.03125686345260
    8      0.08036456041446     0.01169324951080    -0.10073889726829
    9     -0.02544149223745    -0.00854853421735    -0.02102669013884
   10     -0.03220022116388     0.03224476089826     0.04515265451596
   11      0.02544149223745    -0.00854853421735     0.02102669013884
   12      0.03220022116388     0.03224476089826    -0.04515265451596
   13      0.01870493287749     0.00489853707947    -0.02318120778404
   14      0.01569414802491    -0.00562460929160     0.00335231089306
   15     -0.01870493287749     0.00489853707947     0.02318120778404
   16     -0.01569414802491    -0.00562460929160    -0.00335231089306
   17     -0.00290100994197     0.02740509049428     0.01926684837341
   18      0.02627100656679    -0.00825780657746    -0.00916518306346
   19     -0.02627100656679    -0.00825780657746     0.00916518306346
   20      0.00290100994197     0.02740509049428    -0.01926684837341
   21     -0.00526897004296    -0.01635383535808     0.01604923049958
   22      0.00526897004296    -0.01635383535808    -0.01604923049958
   23      0.00356695079035     0.02182585038503     0.00929852504816
   24     -0.00356695079035     0.02182585038503    -0.00929852504816
   25      0.02405678879514     0.00236074353909     0.00475366359715
   26     -0.02405678879514     0.00236074353909    -0.00475366359715
 frms,max,avg= 3.5367401E-02 1.0073890E-01   0.000E+00 -2.003E-03  0.000E+00 h/b
 
 cartesian forces (eV/Angstrom) at end:
    1      2.66875791629122    -0.51927621147774    -2.66313237586944
    2     -3.37684316910794     1.88384106942660    -2.13164674919731
    3     -2.66875791629122    -0.51927621147774     2.66313237586944
    4      3.37684316910794     1.88384106942660     2.13164674919731
    5      0.81290505375385    -4.53439805732694     1.60729240765037
    6     -4.13251150404764     0.60129101526657     5.18020194124498
    7     -0.81290505375385    -4.53439805732694    -1.60729240765037
    8      4.13251150404764     0.60129101526657    -5.18020194124498
    9     -1.30825402153853    -0.43958326672556    -1.08123578904298
   10     -1.65580180749271     1.65809213252863     2.32184265381634
   11      1.30825402153853    -0.43958326672556     1.08123578904298
   12      1.65580180749271     1.65809213252863    -2.32184265381634
   13      0.96184624043280     0.25189288324997    -1.19202553154290
   14      0.80702547148488    -0.28922901442400     0.17238274258298
   15     -0.96184624043280     0.25189288324997     1.19202553154290
   16     -0.80702547148488    -0.28922901442400    -0.17238274258298
   17     -0.14917591655707     1.40922629518569     0.99074109457262
   18      1.35090935980060    -0.42463345165535    -0.47129262265774
   19     -1.35090935980060    -0.42463345165535     0.47129262265774
   20      0.14917591655707     1.40922629518569    -0.99074109457262
   21     -0.27094131050718    -0.84094795521854     0.82528454493620
   22      0.27094131050718    -0.84094795521854    -0.82528454493620
   23      0.18341996894504     1.12233025772280     0.47814934262083
   24     -0.18341996894504     1.12233025772280    -0.47814934262083
   25      1.23704971362581     0.12139430344787     0.24444318988728
   26     -1.23704971362581     0.12139430344787    -0.24444318988728
 frms,max,avg= 1.8186647E+00 5.1802019E+00   0.000E+00 -1.030E-01  0.000E+00 e/A
 length scales=  1.000000000000  1.000000000000  1.000000000000 bohr
              =  0.529177208590  0.529177208590  0.529177208590 angstroms
 Fermi (or HOMO) energy (hartree) =   0.12220   Average Vxc (hartree)=  -0.37664
 Eigenvalues (hartree) for nkpt=   2  k points:
 kpt#   1, nband=104, wtk=  0.50000, kpt=  0.2500  0.2500  0.2500 (reduced coord)
  -1.95484   -1.95483   -1.94875   -1.94875   -1.04015   -1.04006   -1.03471   -1.03459
  -1.02913   -1.02903   -1.02336   -1.02323   -1.02290   -1.02288   -1.01818   -1.01805
  -0.98881   -0.98721   -0.98626   -0.98571   -0.61805   -0.61212   -0.59802   -0.59538
  -0.58766   -0.58028   -0.57616   -0.57401   -0.56901   -0.56781   -0.56045   -0.55809
  -0.55616   -0.55114   -0.54876   -0.54677   -0.53134   -0.53056   -0.40148   -0.39957
  -0.39623   -0.39370   -0.38919   -0.38860   -0.38651   -0.38161   -0.37938   -0.37801
  -0.37280   -0.37084   -0.11001   -0.10584   -0.10065   -0.09806   -0.09452   -0.09179
  -0.08830   -0.08471   -0.08305   -0.07902   -0.07615   -0.07378   -0.07291   -0.06991
  -0.06738   -0.06561   -0.06444   -0.06073   -0.05726   -0.05447   -0.05226   -0.04889
  -0.04624   -0.04296   -0.04155   -0.03745   -0.03430   -0.03205   -0.02989   -0.02766
  -0.02630   -0.02473   -0.01944   -0.01732   -0.01480   -0.01358   -0.01187   -0.01108
  -0.00548   -0.00482   -0.00100    0.00291    0.00396    0.00610    0.00754    0.01066
   0.01315    0.01571    0.01852    0.02237    0.02352    0.02693    0.04541    0.12220
 prteigrs : prtvol=0 or 1, do not print more k-points.
 

--- !EnergyTerms
iteration_state     : {dtset: 1, }
comment             : Components of total free energy in Hartree
kinetic             :  2.26461483013716E+02
hartree             :  1.88561638534439E+02
xc                  : -9.39132462887687E+01
Ewald energy        : -5.05785890461546E+02
psp_core            :  3.67125460952101E+01
local_psp           : -5.83577534131193E+02
spherical_terms     :  4.19272491097859E+01
total_energy        : -6.89613754128356E+02
total_energy_eV     : -1.87653445787224E+04
...


--- !EnergyTermsDC
iteration_state     : {dtset: 1, }
comment             : '"Double-counting" decomposition of free energy'
band_energy         : -8.16628575976551E+01
Ewald energy        : -5.05785890461546E+02
psp_core            :  3.67125460952101E+01
xc_dc               : -1.59901855418322E+02
spherical_terms     :  7.26164064056488E+00
total_energy_dc     : -7.03376416741748E+02
total_energy_dc_eV  : -1.91398456740310E+04
...

 
 Cartesian components of stress tensor (hartree/bohr^3)
  sigma(1 1)= -2.60694400E-03  sigma(3 2)=  0.00000000E+00
  sigma(2 2)= -2.40228044E-03  sigma(3 1)=  1.92721599E-04
  sigma(3 3)= -2.60307226E-03  sigma(2 1)=  0.00000000E+00
 
-Cartesian components of stress tensor (GPa)         [Pressure=  7.4654E+01 GPa]
- sigma(1 1)= -7.66989276E+01  sigma(3 2)=  0.00000000E+00
- sigma(2 2)= -7.06775189E+01  sigma(3 1)=  5.67006424E+00
- sigma(3 3)= -7.65850172E+01  sigma(2 1)=  0.00000000E+00
 
== END DATASET(S) ==============================================================
================================================================================
  
 -outvars: echo values of variables after computation  --------
-          iomode           1
            acell      1.0000000000E+00  1.0000000000E+00  1.0000000000E+00 Bohr
              amu      1.38905500E+02  9.59400000E+01  1.59994000E+01
        autoparal           1
           bandpp          26
     densfor_pred           6
           diemac      4.00000000E+00
             ecut      3.00000000E+01 Hartree
           ecutsm      5.00000000E-01 Hartree
           etotal     -6.8961375413E+02
            fcart      5.1899082818E-02 -1.0098315378E-02 -5.1789683466E-02
                      -6.5669149767E-02  3.6634879125E-02 -4.1453932745E-02
                      -5.1899082818E-02 -1.0098315378E-02  5.1789683466E-02
                       6.5669149767E-02  3.6634879125E-02  4.1453932745E-02
                       1.5808487705E-02 -8.8180010210E-02  3.1256863453E-02
                      -8.0364560414E-02  1.1693249511E-02  1.0073889727E-01
                      -1.5808487705E-02 -8.8180010210E-02 -3.1256863453E-02
                       8.0364560414E-02  1.1693249511E-02 -1.0073889727E-01
                      -2.5441492237E-02 -8.5485342174E-03 -2.1026690139E-02
                      -3.2200221164E-02  3.2244760898E-02  4.5152654516E-02
                       2.5441492237E-02 -8.5485342174E-03  2.1026690139E-02
                       3.2200221164E-02  3.2244760898E-02 -4.5152654516E-02
                       1.8704932877E-02  4.8985370795E-03 -2.3181207784E-02
                       1.5694148025E-02 -5.6246092916E-03  3.3523108931E-03
                      -1.8704932877E-02  4.8985370795E-03  2.3181207784E-02
                      -1.5694148025E-02 -5.6246092916E-03 -3.3523108931E-03
                      -2.9010099420E-03  2.7405090494E-02  1.9266848373E-02
                       2.6271006567E-02 -8.2578065775E-03 -9.1651830635E-03
                      -2.6271006567E-02 -8.2578065775E-03  9.1651830635E-03
                       2.9010099420E-03  2.7405090494E-02 -1.9266848373E-02
                      -5.2689700430E-03 -1.6353835358E-02  1.6049230500E-02
                       5.2689700430E-03 -1.6353835358E-02 -1.6049230500E-02
                       3.5669507904E-03  2.1825850385E-02  9.2985250482E-03
                      -3.5669507904E-03  2.1825850385E-02 -9.2985250482E-03
                       2.4056788795E-02  2.3607435391E-03  4.7536635972E-03
                      -2.4056788795E-02  2.3607435391E-03 -4.7536635972E-03
-          fftalg         401
             iscf           7
              ixc     -116133
              kpt      2.50000000E-01  2.50000000E-01  2.50000000E-01
                      -2.50000000E-01  2.50000000E-01  2.50000000E-01
         kptrlatt        2    0    0      0    2    0      0    0    2
          kptrlen      2.66224585E+01
P           mkmem           1
            natom          26
            nband         104
            ngfft          72      75      75
          ngfftdg          72      75      75
             nkpt           2
-          npband           2
-           npfft           5
-           npkpt           2
            nstep           1
             nsym           2
           ntypat           3
              occ      2.000000  2.000000  2.000000  2.000000  2.000000  2.000000
                       2.000000  2.000000  2.000000  2.000000  2.000000  2.000000
                       2.000000  2.000000  2.000000  2.000000  2.000000  2.000000
                       2.000000  2.000000  2.000000  2.000000  2.000000  2.000000
                       2.000000  2.000000  2.000000  2.000000  2.000000  2.000000
                       2.000000  2.000000  2.000000  2.000000  2.000000  2.000000
                       2.000000  2.000000  2.000000  2.000000  2.000000  2.000000
                       2.000000  2.000000  2.000000  2.000000  2.000000  2.000000
                       2.000000  2.000000  2.000000  2.000000  2.000000  2.000000
                       2.000000  2.000000  2.000000  2.000000  2.000000  2.000000
                       2.000000  2.000000  2.000000  2.000000  2.000000  2.000000
                       2.000000  2.000000  2.000000  2.000000  2.000000  2.000000
                       2.000000  2.000000  2.000000  2.000000  2.000000  2.000000
                       2.000000  2.000000  2.000000  2.000000  2.000000  2.000000
                       2.000000  2.000000  2.000000  2.000000  2.000000  2.000000
                       2.000000  2.000000  2.000000  2.000000  2.000000  2.000000
                       2.000000  2.000000  2.000000  2.000000  2.000000  2.000000
                       2.000000  2.000000
        paral_kgb           1
        pawecutdg      3.00000000E+01 Hartree
         pawmixdg           1
         pawxcdev           0
           prtcif           1
           prteig           0
            rprim      1.3570505761E+01  0.0000000000E+00 -7.0494232710E-01
                       0.0000000000E+00  1.3311229233E+01  0.0000000000E+00
                      -7.0241102225E-01  0.0000000000E+00  1.3575608400E+01
           shiftk      5.00000000E-01  5.00000000E-01  5.00000000E-01
          spgroup           4
           strten     -2.6069440018E-03 -2.4022804446E-03 -2.6030722625E-03
                       0.0000000000E+00  1.9272159882E-04  0.0000000000E+00
           symrel      1  0  0   0  1  0   0  0  1      -1  0  0   0  1  0   0  0 -1
            tnons      0.0000000  0.0000000  0.0000000     0.0000000  0.5000000  0.5000000
           tolvrs      1.00000000E-20
            typat      1  1  1  1  2  2  2  2  3  3  3  3  3  3  3  3  3  3  3  3
                       3  3  3  3  3  3
           useylm           1
         wfoptalg         114
              wtk        0.50000    0.50000
           xangst      6.1180510509E+00  6.1695625219E+00  5.6646898390E+00
                       2.2405882349E+00  4.4403389898E+00  8.0310322220E-01
                       5.0560145096E-01  2.6475629577E+00  4.7381245851E+00
                       4.7547641709E+00  9.1833942562E-01  2.4158086439E+00
                       1.3761677012E+00  1.1888979047E+00  1.3991020946E+00
                       4.6241124083E+00  2.3844673785E+00  6.0665363262E+00
                       5.6191847047E+00  4.7108974688E+00  1.8198097715E+00
                       1.9995400935E+00  5.9064669427E+00  4.3362780979E+00
                       2.7783450328E+00  2.2286065458E+00  1.9060413290E+00
                       5.5165904096E+00  1.2731082622E+00  4.6846114144E+00
                       4.2170073730E+00  5.7506061099E+00  1.3128705371E+00
                       1.1070620922E+00  4.7951078263E+00  5.7182030097E+00
                       7.2416976159E+00  1.3300329604E+00  2.1953324202E+00
                       3.0196313533E+00  2.3704148741E+00  5.3598351926E+00
                      -2.4634521001E-01  4.8520325245E+00  1.0235794459E+00
                       3.6040211485E+00  5.8924144382E+00  5.0429792315E+00
                       1.3976560537E+00  6.7394075668E+00  4.4161731562E-01
                       8.9575135993E-01  1.8421089158E-01  4.9690337562E+00
                       5.7279011419E+00  3.7062104557E+00  5.4337806679E+00
                       5.5976963521E+00  3.2174080026E+00  2.7772945505E+00
                       5.8490029844E-01  2.3431859759E+00  7.2557854015E+00
                       6.0387522034E+00  5.8651855401E+00  3.1470290225E+00
                       1.6170721904E+00  4.4537110537E+00  3.2350902583E+00
                       5.3782802154E+00  9.3171148956E-01 -1.6178392183E-02
                       4.2234088018E+00  3.4599503020E+00  7.5551878867E+00
                       2.4002437000E+00  6.9819498661E+00  2.8476265373E+00
            xcart      1.1561440953E+01  1.1658783526E+01  1.0704712423E+01
                       4.2340981406E+00  8.3910246278E+00  1.5176451464E+00
                       9.5544827470E-01  5.0031689097E+00  8.9537578493E+00
                       8.9852021095E+00  1.7354100115E+00  4.5652167265E+00
                       2.6005800682E+00  2.2466914398E+00  2.6439197908E+00
                       8.7383060594E+00  4.5059903182E+00  1.1464092232E+01
                       1.0618720182E+01  8.9023060561E+00  3.4389420821E+00
                       3.7785831685E+00  1.1161604935E+01  8.1943780411E+00
                       5.2503112147E+00  4.2114560295E+00  3.6018961098E+00
                       1.0424845061E+01  2.4058259530E+00  8.8526326122E+00
                       7.9689890354E+00  1.0867070646E+01  2.4809657631E+00
                       2.0920441664E+00  9.0614405694E+00  1.0805837661E+01
                       1.3684825231E+01  2.5133980428E+00  4.1485770448E+00
                       5.7062762801E+00  4.4794349333E+00  1.0128620631E+01
                      -4.6552498107E-01  9.1690126591E+00  1.9342848281E+00
                       6.8106129478E+00  1.1135049550E+01  9.5298496414E+00
                       2.6411871695E+00  1.2735634599E+01  8.3453578206E-01
                       1.6927247534E+00  3.4810813579E-01  9.3901129443E+00
                       1.0824164474E+01  7.0037227521E+00  1.0268357328E+01
                       1.0578113081E+01  6.0800199827E+00  5.2483260908E+00
                       1.1053013791E+00  4.4279797729E+00  1.3711447288E+01
                       1.1411587849E+01  1.1083594389E+01  5.9470229848E+00
                       3.0558235770E+00  8.4162941665E+00  6.1134346033E+00
                       1.0163476673E+01  1.7606795501E+00 -3.0572730497E-02
                       7.9810859827E+00  6.5383585042E+00  1.4277235988E+01
                       4.5358032452E+00  1.3193973121E+01  5.3812342843E+00
             xred      8.9517375790E-01  8.7586077305E-01  8.3500922843E-01
                       3.1865021796E-01  6.3037188235E-01  1.2833864393E-01
                       1.0482624210E-01  3.7586077305E-01  6.6499077157E-01
                       6.8134978204E-01  1.3037188235E-01  3.7166135607E-01
                       2.0225889264E-01  1.6878166550E-01  2.0525788334E-01
                       6.8948160615E-01  3.3851045906E-01  8.8026529991E-01
                       7.9774110736E-01  6.6878166550E-01  2.9474211666E-01
                       3.1051839385E-01  8.3851045906E-01  6.1973470009E-01
                       4.0170408119E-01  3.1638370551E-01  2.8618049410E-01
                       8.0411266291E-01  1.8073657293E-01  6.9385366656E-01
                       5.9829591881E-01  8.1638370551E-01  2.1381950590E-01
                       1.9588733709E-01  6.8073657293E-01  8.0614633344E-01
                       1.0270018430E+00  1.8881787691E-01  3.5891976038E-01
                       4.6034604132E-01  3.3651549793E-01  7.6999407563E-01
                      -2.7001842981E-02  6.8881787691E-01  1.4108023962E-01
                       5.3965395868E-01  8.3651549793E-01  7.3000592437E-01
                       1.9834197902E-01  9.5675871675E-01  7.1772506219E-02
                       1.6097017658E-01  2.6151464279E-02  7.0004874590E-01
                       8.3902982342E-01  5.2615146428E-01  7.9995125410E-01
                       8.0165802098E-01  4.5675871675E-01  4.2822749378E-01
                       1.3408722935E-01  3.3264995257E-01  1.0169688639E+00
                       8.6591277065E-01  8.3264995257E-01  4.8303113608E-01
                       2.4915981148E-01  6.3227024487E-01  4.6326306088E-01
                       7.5084018852E-01  1.3227024487E-01  3.6736939118E-02
                       6.4428693217E-01  4.9119118827E-01  1.0851389259E+00
                       3.5571306783E-01  9.9119118827E-01  4.1486107408E-01
            znucl       57.00000   42.00000    8.00000
 
================================================================================


- Timing analysis has been suppressed with timopt=0



================================================================================

 Suggested references for the acknowledgment of ABINIT usage.

 The users of ABINIT have little formal obligations with respect to the ABINIT group
 (those specified in the GNU General Public License, http://www.gnu.org/copyleft/gpl.txt).
 However, it is common practice in the scientific literature,
 to acknowledge the efforts of people that have made the research possible.
 In this spirit, please find below suggested citations of work written by ABINIT developers,
 corresponding to implementations inside of ABINIT that you have used in the present run.
 Note also that it will be of great value to readers of publications presenting these results,
 to read papers enabling them to understand the theoretical formalism and details
 of the ABINIT implementation.
 For information on why they are suggested, see also https://docs.abinit.org/theory/acknowledgments.
-
- [1] Implementation of the Projector Augmented-Wave Method in the ABINIT code.
- M. Torrent, F. Jollet, F. Bottin, G. Zerah, and X. Gonze Comput. Mat. Science 42, 337, (2008).
- Comment: PAW calculations. Strong suggestion to cite this paper.
- DOI and bibtex: see https://docs.abinit.org/theory/bibliography/#torrent2008
-
- [2] Libxc: A library of exchange and correlation functionals for density functional theory.
- M.A.L. Marques, M.J.T. Oliveira, T. Burnus, Computer Physics Communications 183, 2227 (2012).
- Comment: to be cited when LibXC is used (negative value of ixc)
- Strong suggestion to cite this paper.
- DOI and bibtex: see https://docs.abinit.org/theory/bibliography/#marques2012
-
- [3] Large scale ab initio calculations based on three levels of parallelization
- F. Bottin, S. Leroux, A. Knyazev, G. Zerah, Comput. Mat. Science 42, 329, (2008).
- Comment: in case LOBPCG algorithm is used (wfoptalg=4/14/114).
- Strong suggestion to cite this paper in your publications.
- This paper is also available at http://www.arxiv.org/abs/0707.3405
- DOI and bibtex: see https://docs.abinit.org/theory/bibliography/#bottin2008
-
- [4] The Abinit project: Impact, environment and recent developments.
- Computer Phys. Comm. 248, 107042 (2020).
- X.Gonze, B. Amadon, G. Antonius, F.Arnardi, L.Baguet, J.-M.Beuken,
- J.Bieder, F.Bottin, J.Bouchet, E.Bousquet, N.Brouwer, F.Bruneval,
- G.Brunin, T.Cavignac, J.-B. Charraud, Wei Chen, M.Cote, S.Cottenier,
- J.Denier, G.Geneste, Ph.Ghosez, M.Giantomassi, Y.Gillet, O.Gingras,
- D.R.Hamann, G.Hautier, Xu He, N.Helbig, N.Holzwarth, Y.Jia, F.Jollet,
- W.Lafargue-Dit-Hauret, K.Lejaeghere, M.A.L.Marques, A.Martin, C.Martins,
- H.P.C. Miranda, F.Naccarato, K. Persson, G.Petretto, V.Planes, Y.Pouillon,
- S.Prokhorenko, F.Ricci, G.-M.Rignanese, A.H.Romero, M.M.Schmitt, M.Torrent,
- M.J.van Setten, B.Van Troeye, M.J.Verstraete, G.Zerah and J.W.Zwanzig
- Comment: the fifth generic paper describing the ABINIT project.
- Note that a version of this paper, that is not formatted for Computer Phys. Comm. 
- is available at https://www.abinit.org/sites/default/files/ABINIT20.pdf .
- The licence allows the authors to put it on the Web.
- DOI and bibtex: see https://docs.abinit.org/theory/bibliography/#gonze2020
-
- [5] ABINIT: Overview, and focus on selected capabilities
- J. Chem. Phys. 152, 124102 (2020).
- A. Romero, D.C. Allan, B. Amadon, G. Antonius, T. Applencourt, L.Baguet,
- J.Bieder, F.Bottin, J.Bouchet, E.Bousquet, F.Bruneval,
- G.Brunin, D.Caliste, M.Cote,
- J.Denier, C. Dreyer, Ph.Ghosez, M.Giantomassi, Y.Gillet, O.Gingras,
- D.R.Hamann, G.Hautier, F.Jollet, G. Jomard,
- A.Martin, 
- H.P.C. Miranda, F.Naccarato, G.Petretto, N.A. Pike, V.Planes,
- S.Prokhorenko, T. Rangel, F.Ricci, G.-M.Rignanese, M.Royo, M.Stengel, M.Torrent,
- M.J.van Setten, B.Van Troeye, M.J.Verstraete, J.Wiktor, J.W.Zwanziger, and X.Gonze.
- Comment: a global overview of ABINIT, with focus on selected capabilities .
- Note that a version of this paper, that is not formatted for J. Chem. Phys 
- is available at https://www.abinit.org/sites/default/files/ABINIT20_JPC.pdf .
- The licence allows the authors to put it on the Web.
- DOI and bibtex: see https://docs.abinit.org/theory/bibliography/#romero2020
-
- [6] Recent developments in the ABINIT software package.
- Computer Phys. Comm. 205, 106 (2016).
- X.Gonze, F.Jollet, F.Abreu Araujo, D.Adams, B.Amadon, T.Applencourt,
- C.Audouze, J.-M.Beuken, J.Bieder, A.Bokhanchuk, E.Bousquet, F.Bruneval
- D.Caliste, M.Cote, F.Dahm, F.Da Pieve, M.Delaveau, M.Di Gennaro,
- B.Dorado, C.Espejo, G.Geneste, L.Genovese, A.Gerossier, M.Giantomassi,
- Y.Gillet, D.R.Hamann, L.He, G.Jomard, J.Laflamme Janssen, S.Le Roux,
- A.Levitt, A.Lherbier, F.Liu, I.Lukacevic, A.Martin, C.Martins,
- M.J.T.Oliveira, S.Ponce, Y.Pouillon, T.Rangel, G.-M.Rignanese,
- A.H.Romero, B.Rousseau, O.Rubel, A.A.Shukri, M.Stankovski, M.Torrent,
- M.J.Van Setten, B.Van Troeye, M.J.Verstraete, D.Waroquier, J.Wiktor,
- B.Xu, A.Zhou, J.W.Zwanziger.
- Comment: the fourth generic paper describing the ABINIT project.
- Note that a version of this paper, that is not formatted for Computer Phys. Comm. 
- is available at https://www.abinit.org/sites/default/files/ABINIT16.pdf .
- The licence allows the authors to put it on the Web.
- DOI and bibtex: see https://docs.abinit.org/theory/bibliography/#gonze2016
-
- Proc.   0 individual time (sec): cpu=         12.9  wall=         14.4
 
================================================================================
 
 Calculation completed.
.Delivered   1 WARNINGs and   0 COMMENTs to log file.
+Overall time at end (sec) : cpu=        273.3  wall=        281.0
