
.Version 9.3.2 of ABINIT 
.(MPI version, prepared for a x86_64_linux_intel19.1 computer) 

.Copyright (C) 1998-2020 ABINIT group . 
 ABINIT comes with ABSOLUTELY NO WARRANTY.
 It is free software, and you are welcome to redistribute it
 under certain conditions (GNU General Public License,
 see ~abinit/COPYING or http://www.gnu.org/copyleft/gpl.txt).

 ABINIT is a project of the Universite Catholique de Louvain,
 Corning Inc. and other collaborators, see ~abinit/doc/developers/contributors.txt .
 Please read https://docs.abinit.org/theory/acknowledgments for suggested
 acknowledgments of the ABINIT effort.
 For more information, see https://www.abinit.org .

.Starting date : Mon 27 Sep 2021.
- ( at 15h05 )
  
- input  file    -> abi.in
- output file    -> abi.out
- root for input  files -> abi-i
- root for output files -> abi-o
 
- inpspheads : Reading pseudopotential header in XML form from 
-   ~/ABINIT_PAW_PBE/paw_pbe_standard/La.xml
- inpspheads : Reading pseudopotential header in XML form from 
-   ~/ABINIT_PAW_PBE/paw_pbe_standard/Mo.xml
- inpspheads : Reading pseudopotential header in XML form from 
-   ~/ABINIT_PAW_PBE/paw_pbe_standard/O.xml
 
 DATASET    1 : space group P1 (#  1); Bravais aP (primitive triclinic)
================================================================================
 Values of the parameters that define the memory need for DATASET  1.
     intxc =       0    ionmov =       0      iscf =       7    lmnmax =      32
     lnmax =       8     mgfft =      75  mpssoang =       4    mqgrid =    3343
     natom =      26  nloc_mem =       2    nspden =       1   nspinor =       1
    nsppol =       1      nsym =       1    n1xccc =       1    ntypat =       3
    occopt =       1   xclevel =       2
-    mband =         104        mffmem =           1         mkmem =           1
       mpw =        1169          nfft =       27000          nkpt =           4
Pmy_natom=         7
 PAW method is used; the additional fine FFT grid is defined by:
   mgfftf=        75    nfftf =     27000
================================================================================
P This job should need less than                      39.962 Mbytes of memory.
  Rough estimation (10% accuracy) of disk space for files :
_ WF disk file :    111.308 Mbytes ; DEN or POT disk file :      0.208 Mbytes.
================================================================================
 
--------------------------------------------------------------------------------
------------- Echo of variables that govern the present computation ------------
--------------------------------------------------------------------------------
-
- outvars: echo of selected default values                                      
-   iomode0 =  0 , fftalg0 =512 , wfoptalg0 = 10
-
- outvars: echo of global parameters not present in the input file              
-  max_nthreads =    1
-
 -outvars: echo values of preprocessed input variables --------
-          iomode           1
            acell      1.0000000000E+00  1.0000000000E+00  1.0000000000E+00 Bohr
              amu      1.38905500E+02  9.59400000E+01  1.59994000E+01
        autoparal           1
           bandpp          26
     densfor_pred           6
           diemac      4.00000000E+00
             ecut      3.00000000E+01 Hartree
           ecutsm      5.00000000E-01 Hartree
-          fftalg         401
             iscf           7
              ixc     -116133
           jdtset        1
              kpt      2.50000000E-01  2.50000000E-01  2.50000000E-01
                      -2.50000000E-01  2.50000000E-01  2.50000000E-01
                       2.50000000E-01 -2.50000000E-01  2.50000000E-01
                      -2.50000000E-01 -2.50000000E-01  2.50000000E-01
         kptrlatt        2    0    0      0    2    0      0    0    2
          kptrlen      2.66800323E+01
P           mkmem           1
            natom          26
            nband         104
           ndtset           1
            ngfft          72      75      75
          ngfftdg          72      75      75
             nkpt           4
-           npfft          15
-           npkpt           4
            nstep         100
             nsym           1
           ntypat           3
              occ      2.000000  2.000000  2.000000  2.000000  2.000000  2.000000
                       2.000000  2.000000  2.000000  2.000000  2.000000  2.000000
                       2.000000  2.000000  2.000000  2.000000  2.000000  2.000000
                       2.000000  2.000000  2.000000  2.000000  2.000000  2.000000
                       2.000000  2.000000  2.000000  2.000000  2.000000  2.000000
                       2.000000  2.000000  2.000000  2.000000  2.000000  2.000000
                       2.000000  2.000000  2.000000  2.000000  2.000000  2.000000
                       2.000000  2.000000  2.000000  2.000000  2.000000  2.000000
                       2.000000  2.000000  2.000000  2.000000  2.000000  2.000000
                       2.000000  2.000000  2.000000  2.000000  2.000000  2.000000
                       2.000000  2.000000  2.000000  2.000000  2.000000  2.000000
                       2.000000  2.000000  2.000000  2.000000  2.000000  2.000000
                       2.000000  2.000000  2.000000  2.000000  2.000000  2.000000
                       2.000000  2.000000  2.000000  2.000000  2.000000  2.000000
                       2.000000  2.000000  2.000000  2.000000  2.000000  2.000000
                       2.000000  2.000000  2.000000  2.000000  2.000000  2.000000
                       2.000000  2.000000  2.000000  2.000000  2.000000  2.000000
                       2.000000  2.000000
        paral_kgb           1
        pawecutdg      3.00000000E+01 Hartree
         pawmixdg           1
         pawxcdev           0
           prteig           0
            rprim      1.3453580123E+01  1.2237656658E-02  6.9521853920E-01
                       1.1913362974E-02  1.3340010778E+01 -1.3551169519E-03
                       6.8062852132E-01 -1.3031979934E-03  1.3608369122E+01
           shiftk      5.00000000E-01  5.00000000E-01  5.00000000E-01
          spgroup           1
           tolvrs      1.00000000E-20
            typat      1  1  1  1  2  2  2  2  3  3  3  3  3  3  3  3  3  3  3  3
                       3  3  3  3  3  3
           useylm           1
         wfoptalg         114
              wtk        0.25000    0.25000    0.25000    0.25000
           xangst      6.1472698561E+00  6.1465463806E+00  6.5831655710E+00
                       2.8747491229E+00  4.4084674297E+00  1.3238890834E+00
                       1.5117527675E+00  2.6235974390E+00  4.5679458297E+00
                       4.4312951343E+00  8.8144758769E-01  2.6407878896E+00
                       1.3918941195E+00  1.1398458304E+00  9.2324128828E-01
                       5.2810988816E+00  2.3393488866E+00  5.9900092952E+00
                       5.9104502099E+00  4.6748877494E+00  3.0449150728E+00
                       2.3867151111E+00  5.8705449424E+00  5.1743744075E+00
                       2.2839386594E+00  2.2542461357E+00  2.3054875250E+00
                       6.6777542084E+00  1.2998259681E+00  5.4743593996E+00
                       5.0388858723E+00  5.7847001050E+00  1.6569381250E+00
                       9.8924693942E-01  4.8274436755E+00  5.6784941675E+00
                       6.9103738653E+00  1.1640302020E+00  2.0073487739E+00
                       3.9729782697E+00  2.2030145201E+00  4.8114845237E+00
                       4.0405005219E-01  4.6722757259E+00  1.9867238267E+00
                       3.6888983540E+00  5.7283129422E+00  6.3598943537E+00
                       2.4952503717E+00  6.8772768489E+00  1.5681998672E+00
                       2.3398246794E+00  3.1153041052E-01  4.2306963015E+00
                       5.3178672339E+00  3.8331517993E+00  6.9470852061E+00
                       4.8197499653E+00  3.3496629985E+00  2.4029851160E+00
                       2.1231706335E+00  2.5913074001E+00  7.0213793996E+00
                       5.5304278005E+00  6.1291869110E+00  4.1465784156E+00
                       2.8160972510E+00  4.7240103252E+00  3.8472114765E+00
                       4.4980577521E+00  1.1857406308E+00  1.1368547970E-01
                       9.9459594078E-01  5.2373138765E-02 -5.5348627423E-01
                       6.2961531027E+00  3.5961226008E+00  4.5357106089E+00
            xcart      1.1616656493E+01  1.1615289322E+01  1.2440380017E+01
                       5.4324885430E+00  8.3307961078E+00  2.5017877979E+00
                       2.8567987112E+00  4.9578806426E+00  8.6321666080E+00
                       8.3739342178E+00  1.6656945412E+00  4.9903658864E+00
                       2.6302986919E+00  2.1539964532E+00  1.7446731894E+00
                       9.9798305668E+00  4.4207287250E+00  1.1319477101E+01
                       1.1169132219E+01  8.8342575484E+00  5.7540555855E+00
                       4.5102379173E+00  1.1093722192E+01  9.7781505393E+00
                       4.3160185706E+00  4.2599078327E+00  4.3567400251E+00
                       1.2619126637E+01  2.4563151001E+00  1.0345040018E+01
                       9.5221143135E+00  1.0931498959E+01  3.1311592753E+00
                       1.8694057933E+00  9.1225464685E+00  1.0730798824E+01
                       1.3058714081E+01  2.1996982922E+00  3.7933394359E+00
                       7.5078408617E+00  4.1630941097E+00  9.0923880424E+00
                       7.6354394261E-01  8.8293215393E+00  3.7543639342E+00
                       6.9710076211E+00  1.0824942664E+01  1.2018458563E+01
                       4.7153398356E+00  1.2996169784E+01  2.9634682706E+00
                       4.4216278430E+00  5.8870715794E-01  7.9948573613E+00
                       1.0049312683E+01  7.2436071265E+00  1.3128088461E+01
                       9.1080074635E+00  6.3299457047E+00  4.5409837706E+00
                       4.0122110306E+00  4.8968613122E+00  1.3268484140E+01
                       1.0450993941E+01  1.1582484679E+01  7.8358975940E+00
                       5.3216525679E+00  8.9270857635E+00  7.2701760660E+00
                       8.5000972813E+00  2.2407250569E+00  2.1483442192E-01
                       1.8795139410E+00  9.8970888985E-02 -1.0459374766E+00
                       1.1898005055E+01  6.7956868558E+00  8.5712508688E+00
             xred      8.1855414775E-01  8.7004495669E-01  8.7243995983E-01
                       3.9495924787E-01  6.2415062766E-01  1.6372649681E-01
                       1.8038900685E-01  3.7155050917E-01  6.2514914492E-01
                       6.0533311523E-01  1.2434205072E-01  3.3580038425E-01
                       1.8936893459E-01  1.6130672965E-01  1.1854756219E-01
                       7.0123352348E-01  3.3082316825E-01  7.9601124590E-01
                       8.1031149254E-01  6.6153157991E-01  3.8150114972E-01
                       2.9892506889E-01  8.3140717346E-01  7.0335092012E-01
                       3.0511586400E-01  3.1908301640E-01  3.0459566296E-01
                       9.0168348011E-01  1.8337401125E-01  7.1415034030E-01
                       6.9720776674E-01  8.1883144575E-01  1.9455359410E-01
                       9.8705268294E-02  6.8383450698E-01  7.8356955718E-01
                       9.5887971205E-01  1.6403759612E-01  2.2977997916E-01
                       5.2533331285E-01  3.1165649885E-01  6.4133981351E-01
                       4.2316574468E-02  6.6185557370E-01  2.7379045390E-01
                       4.7397510174E-01  8.1111342337E-01  8.5903324147E-01
                       3.3948258978E-01  9.7393299365E-01  2.0052171197E-01
                       2.9967157355E-01  4.3911925363E-02  5.7219050744E-01
                       6.9948136544E-01  5.4244767407E-01  9.2902617608E-01
                       6.6140074732E-01  4.7393084658E-01  2.9994835562E-01
                       2.4921628331E-01  3.6694614981E-01  9.6232851249E-01
                       7.4885062169E-01  8.6761707702E-01  5.3764403475E-01
                       3.6888649754E-01  6.6890824583E-01  5.1546410300E-01
                       6.3249630267E-01  1.6738841571E-01 -1.6509098245E-02
                       1.4395762165E-01  7.2788125640E-03 -8.4213590188E-02
                       8.5426477963E-01  5.0869499149E-01  5.8625978074E-01
            znucl       57.00000   42.00000    8.00000
 
================================================================================
 
 chkinp: Checking input parameters for consistency, jdtset=   1.
 
================================================================================
== DATASET  1 ==================================================================
-   mpi_nproc: 60, omp_nthreads: 1 (-1 if OMP is not activated)
 

--- !DatasetInfo
iteration_state: {dtset: 1, }
dimensions: {natom: 26, nkpt: 4, mband: 104, nsppol: 1, nspinor: 1, nspden: 1, mpw: 1169, }
cutoff_energies: {ecut:  30.0, pawecutdg:  30.0, }
electrons: {nelect:   2.08000000E+02, charge:   0.00000000E+00, occopt:   1.00000000E+00, tsmear:   1.00000000E-02, }
meta: {optdriver: 0, ionmov: 0, optcell: 0, iscf: 7, paral_kgb: 1, }
...

 Real(R)+Recip(G) space primitive vectors, cartesian coordinates (Bohr,Bohr^-1):
 R(1)= 13.4535801  0.0122377  0.6952185  G(1)=  0.0745223 -0.0000669 -0.0037273
 R(2)=  0.0119134 13.3400108 -0.0013551  G(2)= -0.0000687  0.0749625  0.0000106
 R(3)=  0.6806285 -0.0013032 13.6083691  G(3)= -0.0038072  0.0000109  0.0736746
 Unit cell volume ucvol=  2.4359920E+03 bohr^3
 Angles (23,13,12)=  9.00087370E+01  8.41785714E+01  8.98971523E+01 degrees
 
 Coarse grid specifications (used for wave-functions):
 
 getcut: wavevector=  0.0000  0.0000  0.0000  ngfft=  72  75  75
         ecut(hartree)=     30.000   => boxcut(ratio)=   2.16773
 
 Fine grid specifications (used for densities):
 
 getcut: wavevector=  0.0000  0.0000  0.0000  ngfft=  72  75  75
         ecut(hartree)=     30.000   => boxcut(ratio)=   2.16773
 
--- Pseudopotential description ------------------------------------------------
- pspini: atom type   1  psp file is ~/ABINIT_PAW_PBE/paw_pbe_standard/La.xml
- pspatm: opening atomic psp file    ~/ABINIT_PAW_PBE/paw_pbe_standard/La.xml
- pspatm : Reading pseudopotential header in XML form from ~/ABINIT_PAW_PBE/paw_pbe_standard/La.xml
 Pseudopotential format is: paw10
 basis_size (lnmax)=  8 (lmn_size= 32), orbitals=   0   0   1   1   2   2   3   3
 Spheres core radius: rc_sph= 2.51647158
 1 radial meshes are used:
  - mesh 1: r(i)=AA*[exp(BB*(i-1))-1], size=1500 , AA= 0.15403E-03 BB= 0.87795E-02
 Shapefunction is SIN type: shapef(r)=[sin(pi*r/rshp)/(pi*r/rshp)]**2
 Radius for shape functions =  2.30494653
 mmax= 1500
 Radial grid used for partial waves is grid 1
 Radial grid used for projectors is grid 1
 Radial grid used for (t)core density is grid 1
 Radial grid used for Vloc is grid 1
 Radial grid used for pseudo valence density is grid 1
 Mesh size for Vloc has been set to 1342 to avoid numerical noise.
 Compensation charge density is not taken into account in XC energy/potential
 pspatm: atomic psp has been read  and splines computed
 
- pspini: atom type   2  psp file is ~/ABINIT_PAW_PBE/paw_pbe_standard/Mo.xml
- pspatm: opening atomic psp file    ~/ABINIT_PAW_PBE/paw_pbe_standard/Mo.xml
- pspatm : Reading pseudopotential header in XML form from ~/ABINIT_PAW_PBE/paw_pbe_standard/Mo.xml
 Pseudopotential format is: paw10
 basis_size (lnmax)=  6 (lmn_size= 18), orbitals=   0   0   1   1   2   2
 Spheres core radius: rc_sph= 2.20000000
 1 radial meshes are used:
  - mesh 1: r(i)=AA*[exp(BB*(i-1))-1], size= 846 , AA= 0.34789E-03 BB= 0.14611E-01
 Shapefunction is SIN type: shapef(r)=[sin(pi*r/rshp)/(pi*r/rshp)]**2
 Radius for shape functions =  1.90088266
 mmax=  846
 Radial grid used for partial waves is grid 1
 Radial grid used for projectors is grid 1
 Radial grid used for (t)core density is grid 1
 Radial grid used for Vloc is grid 1
 Radial grid used for pseudo valence density is grid 1
 Mesh size for Vloc has been set to  751 to avoid numerical noise.
 Compensation charge density is not taken into account in XC energy/potential
 pspatm: atomic psp has been read  and splines computed
 
- pspini: atom type   3  psp file is ~/ABINIT_PAW_PBE/paw_pbe_standard/O.xml
- pspatm: opening atomic psp file    ~/ABINIT_PAW_PBE/paw_pbe_standard/O.xml
- pspatm : Reading pseudopotential header in XML form from ~/ABINIT_PAW_PBE/paw_pbe_standard/O.xml
 Pseudopotential format is: paw10
 basis_size (lnmax)=  4 (lmn_size=  8), orbitals=   0   0   1   1
 Spheres core radius: rc_sph= 1.41465230
 1 radial meshes are used:
  - mesh 1: r(i)=AA*[exp(BB*(i-1))-1], size=2001 , AA= 0.72565E-03 BB= 0.58052E-02
 Shapefunction is SIN type: shapef(r)=[sin(pi*r/rshp)/(pi*r/rshp)]**2
 Radius for shape functions =  1.20231231
 mmax= 2001
 Radial grid used for partial waves is grid 1
 Radial grid used for projectors is grid 1
 Radial grid used for (t)core density is grid 1
 Radial grid used for Vloc is grid 1
 Radial grid used for pseudo valence density is grid 1
 Mesh size for Vloc has been set to 1762 to avoid numerical noise.
 Compensation charge density is not taken into account in XC energy/potential
 pspatm: atomic psp has been read  and splines computed
 
   8.97881771E+04                                ecore*ucvol(ha*bohr**3)
--------------------------------------------------------------------------------
 
_setup2: Arith. and geom. avg. npw (full set) are    1164.500    1164.494
 
================================================================================

--- !BeginCycle
iteration_state: {dtset: 1, }
solver: {iscf: 7, nstep: 100, nline: 4, wfoptalg: 114, }
tolerances: {tolvrs: 1.00E-20, }
...
 
     iter   Etot(hartree)      deltaE(h)  residm     vres2
 ETOT  1  -689.11384505162    -6.891E+02 1.550E-02 2.390E+04
 ETOT  2  -685.61146864355     3.502E+00 6.988E-04 4.764E+04
 ETOT  3  -693.60651102038    -7.995E+00 1.131E-03 3.048E+03
 ETOT  4  -694.25687314297    -6.504E-01 1.948E-05 6.337E+02
 ETOT  5  -694.16382041935     9.305E-02 7.056E-05 7.747E+02
 ETOT  6  -694.30812892027    -1.443E-01 6.301E-06 2.203E+02
 ETOT  7  -694.35132668410    -4.320E-02 2.514E-06 3.899E+01
 ETOT  8  -694.35750468531    -6.178E-03 5.646E-07 1.059E+01
 ETOT  9  -694.35987027707    -2.366E-03 4.759E-07 5.561E-01
 ETOT 10  -694.35988045279    -1.018E-05 1.965E-07 3.050E-01
 ETOT 11  -694.35990941629    -2.896E-05 6.629E-08 1.975E-01
 ETOT 12  -694.35995946358    -5.005E-05 1.122E-08 8.450E-03
 ETOT 13  -694.35995965214    -1.886E-07 3.460E-09 7.504E-03
 ETOT 14  -694.35996124136    -1.589E-06 6.895E-10 5.134E-04
 ETOT 15  -694.35996123959     1.770E-09 2.112E-10 5.698E-04
 ETOT 16  -694.35996134414    -1.046E-07 1.103E-10 4.507E-05
 ETOT 17  -694.35996134623    -2.093E-09 2.733E-11 5.906E-05
 ETOT 18  -694.35996135862    -1.238E-08 4.644E-12 6.750E-06
 ETOT 19  -694.35996135989    -1.277E-09 1.422E-12 1.795E-06
 ETOT 20  -694.35996135994    -5.070E-11 1.805E-12 1.530E-06
 ETOT 21  -694.35996136018    -2.360E-10 5.838E-13 2.266E-07
 ETOT 22  -694.35996136024    -5.571E-11 3.526E-14 7.165E-08
 ETOT 23  -694.35996136025    -1.160E-11 1.280E-14 8.180E-09
 ETOT 24  -694.35996136025    -3.411E-12 4.996E-15 3.309E-09
 ETOT 25  -694.35996136025    -2.274E-13 7.368E-16 1.052E-09
 ETOT 26  -694.35996136025     2.274E-13 8.289E-16 7.199E-10
 ETOT 27  -694.35996136025    -4.547E-13 2.072E-16 1.698E-10
 ETOT 28  -694.35996136025     2.274E-13 3.990E-17 3.809E-11
 ETOT 29  -694.35996136025    -6.821E-13 1.347E-17 4.452E-12
 ETOT 30  -694.35996136025     4.547E-13 2.910E-18 1.677E-12
 ETOT 31  -694.35996136025    -2.274E-13 1.116E-18 7.306E-13
 ETOT 32  -694.35996136025     2.274E-13 3.943E-19 2.150E-13
 ETOT 33  -694.35996136025    -1.137E-13 5.648E-20 3.868E-14
 ETOT 34  -694.35996136025     2.274E-13 8.375E-21 4.537E-15
 ETOT 35  -694.35996136025    -3.411E-13 1.615E-21 2.698E-15
 ETOT 36  -694.35996136025     2.274E-13 5.732E-22 7.489E-16
 ETOT 37  -694.35996136025    -1.137E-13 1.962E-22 3.121E-16
 ETOT 38  -694.35996136025     2.274E-13 7.676E-23 9.842E-17
 ETOT 39  -694.35996136025    -1.137E-13 6.651E-23 6.437E-17
 ETOT 40  -694.35996136025     1.137E-13 1.028E-23 5.306E-18
 ETOT 41  -694.35996136025    -2.274E-13 6.454E-25 2.936E-18
 ETOT 42  -694.35996136025     3.411E-13 2.328E-25 5.802E-19
 ETOT 43  -694.35996136025    -1.137E-13 9.885E-26 3.597E-19
 ETOT 44  -694.35996136025    -5.684E-13 2.645E-26 4.416E-20
 ETOT 45  -694.35996136025     1.137E-13 6.161E-27 2.963E-20
 ETOT 46  -694.35996136025     3.411E-13 1.583E-27 2.013E-21
 
 At SCF step   46       vres2   =  2.01E-21 < tolvrs=  1.00E-20 =>converged.
 
 Cartesian components of stress tensor (hartree/bohr^3)
  sigma(1 1)= -3.39893134E-05  sigma(3 2)= -1.44665864E-11
  sigma(2 2)= -1.62641550E-11  sigma(3 1)= -5.25016033E-12
  sigma(3 3)= -9.31967351E-12  sigma(2 1)=  1.36044763E-11
 

--- !ResultsGS
iteration_state: {dtset: 1, }
comment   : Summary of ground state results
lattice_vectors:
- [ 13.4535801,   0.0122377,   0.6952185, ]
- [  0.0119134,  13.3400108,  -0.0013551, ]
- [  0.6806285,  -0.0013032,  13.6083691, ]
lattice_lengths: [  13.47154,   13.34002,   13.62538, ]
lattice_angles: [ 90.009,  84.179,  89.897, ] # degrees, (23, 13, 12)
lattice_volume:   2.4359920E+03
convergence: {deltae:  3.411E-13, res2:  2.013E-21, residm:  1.583E-27, diffor: null, }
etotal    :  -6.94359961E+02
entropy   :   0.00000000E+00
fermie    :   1.20101133E-01
cartesian_stress_tensor: # hartree/bohr^3
- [ -3.39893134E-05,   1.36044763E-11,  -5.25016033E-12, ]
- [  1.36044763E-11,  -1.62641550E-11,  -1.44665864E-11, ]
- [ -5.25016033E-12,  -1.44665864E-11,  -9.31967351E-12, ]
pressure_GPa:   3.3333E-01
xred      :
- [  8.1855E-01,   8.7004E-01,   8.7244E-01, La]
- [  3.9496E-01,   6.2415E-01,   1.6373E-01, La]
- [  1.8039E-01,   3.7155E-01,   6.2515E-01, La]
- [  6.0533E-01,   1.2434E-01,   3.3580E-01, La]
- [  1.8937E-01,   1.6131E-01,   1.1855E-01, Mo]
- [  7.0123E-01,   3.3082E-01,   7.9601E-01, Mo]
- [  8.1031E-01,   6.6153E-01,   3.8150E-01, Mo]
- [  2.9893E-01,   8.3141E-01,   7.0335E-01, Mo]
- [  3.0512E-01,   3.1908E-01,   3.0460E-01,  O]
- [  9.0168E-01,   1.8337E-01,   7.1415E-01,  O]
- [  6.9721E-01,   8.1883E-01,   1.9455E-01,  O]
- [  9.8705E-02,   6.8383E-01,   7.8357E-01,  O]
- [  9.5888E-01,   1.6404E-01,   2.2978E-01,  O]
- [  5.2533E-01,   3.1166E-01,   6.4134E-01,  O]
- [  4.2317E-02,   6.6186E-01,   2.7379E-01,  O]
- [  4.7398E-01,   8.1111E-01,   8.5903E-01,  O]
- [  3.3948E-01,   9.7393E-01,   2.0052E-01,  O]
- [  2.9967E-01,   4.3912E-02,   5.7219E-01,  O]
- [  6.9948E-01,   5.4245E-01,   9.2903E-01,  O]
- [  6.6140E-01,   4.7393E-01,   2.9995E-01,  O]
- [  2.4922E-01,   3.6695E-01,   9.6233E-01,  O]
- [  7.4885E-01,   8.6762E-01,   5.3764E-01,  O]
- [  3.6889E-01,   6.6891E-01,   5.1546E-01,  O]
- [  6.3250E-01,   1.6739E-01,  -1.6509E-02,  O]
- [  1.4396E-01,   7.2788E-03,  -8.4214E-02,  O]
- [  8.5426E-01,   5.0869E-01,   5.8626E-01,  O]
cartesian_forces: # hartree/bohr
- [ -1.55256863E-09,   1.82093613E-09,   6.77621242E-10, ]
- [ -1.16045051E-10,   4.22446262E-10,   2.37896389E-09, ]
- [ -1.99997609E-09,   5.60390036E-09,  -1.62704625E-09, ]
- [ -1.61757225E-10,  -7.71081923E-10,   1.91715072E-09, ]
- [  1.10253721E-09,   3.27975512E-09,   1.34135368E-09, ]
- [  9.13430002E-11,   3.16485503E-09,  -2.25106162E-10, ]
- [  9.83596163E-10,   6.61367537E-09,  -8.51529942E-09, ]
- [  6.53202151E-09,  -5.19790559E-09,  -3.97493751E-09, ]
- [ -4.04828698E-09,  -2.22972071E-09,   2.33493669E-09, ]
- [  2.44329976E-09,   3.52509143E-09,  -1.83063755E-09, ]
- [ -4.61172745E-10,   4.29517178E-09,  -7.74656278E-09, ]
- [ -4.32856940E-09,  -6.79231252E-09,  -1.00860809E-10, ]
- [  1.60852319E-09,  -5.16561206E-09,  -7.40223494E-09, ]
- [  3.56181785E-09,   3.78424297E-09,  -3.30118563E-09, ]
- [  7.58227545E-09,  -4.42248228E-09,  -3.93290314E-09, ]
- [  8.53198331E-10,  -2.93800758E-09,   2.70914694E-09, ]
- [ -3.47049024E-09,   1.05257306E-09,  -1.36306095E-09, ]
- [  5.33237881E-09,  -9.74899986E-11,  -1.37778797E-10, ]
- [  2.63343475E-09,  -2.27243277E-09,   4.53088487E-09, ]
- [ -7.96686293E-09,  -7.80766576E-09,  -4.10364388E-09, ]
- [ -4.91770162E-09,  -8.94986502E-09,   5.20694075E-09, ]
- [ -2.22965377E-09,   8.88399863E-09,   2.62894456E-09, ]
- [ -4.18863649E-09,   8.99286840E-10,   2.78911166E-09, ]
- [ -2.29830447E-09,   7.37444593E-09,  -2.73701126E-10, ]
- [  4.93015211E-09,   2.84782579E-09,   8.49691036E-09, ]
- [  8.54475154E-11,  -6.92362848E-09,   9.52299355E-09, ]
force_length_stats: {min:   2.07272758E-09, max:   1.18857243E-08, mean:   6.86708385E-09, }
...

 Integrated electronic density in atomic spheres:
 ------------------------------------------------
 Atom  Sphere_radius  Integrated_density
    1        2.51647          7.88454456
    2        2.51647          7.85728885
    3        2.51647          7.88284999
    4        2.51647          7.85984994
    5        2.20000         11.36790408
    6        2.20000         11.47722033
    7        2.20000         11.35640871
    8        2.20000         11.48993129
    9        1.41465          4.54301923
   10        1.41465          4.56835223
   11        1.41465          4.55150033
   12        1.41465          4.56986770
   13        1.41465          4.54204930
   14        1.41465          4.57126085
   15        1.41465          4.54572917
   16        1.41465          4.57532095
   17        1.41465          4.54889952
   18        1.41465          4.56166648
   19        1.41465          4.56313224
   20        1.41465          4.55317928
   21        1.41465          4.55786606
   22        1.41465          4.53355794
   23        1.41465          4.54916149
   24        1.41465          4.54481674
   25        1.41465          4.55704270
   26        1.41465          4.55605070
 
 PAW TEST:
 ==== Compensation charge inside spheres ============
 The following values must be close to each other ...
 Compensation charge over spherical meshes =     21.038953477297476
 Compensation charge over fft grid         =     21.038928806074164
 
 ==== Results concerning PAW augmentation regions ====
 
 Total pseudopotential strength Dij (hartree):
 Atom #  1
   0.47268  -0.11713   0.00032   0.00001   0.00025   0.00004   0.00001   0.00002  -0.00003  -0.00001  -0.00001   0.00001 ...
  -0.11713   0.02307  -0.00006  -0.00000  -0.00005   0.00002  -0.00000   0.00002   0.00000   0.00001   0.00000   0.00000 ...
   0.00032  -0.00006  -0.18080  -0.00003  -0.00003   0.04268   0.00008  -0.00006   0.00006  -0.00000  -0.00004   0.00002 ...
   0.00001  -0.00000  -0.00003  -0.18082  -0.00002   0.00008   0.04262   0.00016   0.00002   0.00009   0.00001   0.00007 ...
   0.00025  -0.00005  -0.00003  -0.00002  -0.18079  -0.00006   0.00016   0.04262   0.00007   0.00002  -0.00004  -0.00002 ...
   0.00004   0.00002   0.04268   0.00008  -0.00006   0.32007   0.00002  -0.00002   0.00001   0.00001  -0.00002   0.00001 ...
   0.00001  -0.00000   0.00008   0.04262   0.00016   0.00002   0.32005   0.00003   0.00001   0.00005   0.00002   0.00008 ...
   0.00002   0.00002  -0.00006   0.00016   0.04262  -0.00002   0.00003   0.32005   0.00003   0.00001   0.00002  -0.00001 ...
  -0.00003   0.00000   0.00006   0.00002   0.00007   0.00001   0.00001   0.00003  -0.05764   0.00001   0.00001   0.00000 ...
  -0.00001   0.00001  -0.00000   0.00009   0.00002   0.00001   0.00005   0.00001   0.00001  -0.05764   0.00000  -0.00001 ...
  -0.00001   0.00000  -0.00004   0.00001  -0.00004  -0.00002   0.00002   0.00002   0.00001   0.00000  -0.05765   0.00001 ...
   0.00001   0.00000   0.00002   0.00007  -0.00002   0.00001   0.00008  -0.00001   0.00000  -0.00001   0.00001  -0.05765 ...
   ...  only 12  components have been written...
 Atom # 26
   0.61692  -1.76947  -0.00022   0.00040   0.00028   0.00154  -0.00285  -0.00203
  -1.76947   5.13358   0.00055  -0.00102  -0.00072  -0.00405   0.00751   0.00545
  -0.00022   0.00055  -0.31048   0.00074   0.00011   0.96995  -0.00382  -0.00058
   0.00040  -0.00102   0.00074  -0.31085  -0.00007  -0.00382   0.97185   0.00038
   0.00028  -0.00072   0.00011  -0.00007  -0.31022  -0.00058   0.00038   0.96860
   0.00154  -0.00405   0.96995  -0.00382  -0.00058  -0.28308   0.01911   0.00293
  -0.00285   0.00751  -0.00382   0.97185   0.00038   0.01911  -0.29259  -0.00189
  -0.00203   0.00545  -0.00058   0.00038   0.96860   0.00293  -0.00189  -0.27636
 
 
 Augmentation waves occupancies Rhoij:
 Atom #  1
   2.02524  -0.08081  -0.00375  -0.00063  -0.00355   0.00177   0.00012   0.00178  -0.00199   0.00571  -0.00032   0.01126 ...
  -0.08081   0.25724   0.01509   0.00140   0.01440  -0.00405  -0.00000  -0.00330   0.00043  -0.01023   0.00360  -0.01996 ...
  -0.00375   0.01509   2.04713  -0.00427   0.00112  -0.02178   0.00247  -0.00083   0.00354   0.00473  -0.00534  -0.00938 ...
  -0.00063   0.00140  -0.00427   2.04432  -0.00934   0.00246  -0.02111   0.00529  -0.00631   0.00443  -0.00701   0.04436 ...
  -0.00355   0.01440   0.00112  -0.00934   2.05466  -0.00082   0.00527  -0.02583   0.01846  -0.00301   0.02412   0.00114 ...
   0.00177  -0.00405  -0.02178   0.00246  -0.00082   0.01539  -0.00096   0.00005  -0.00059  -0.00129   0.00103   0.00346 ...
   0.00012  -0.00000   0.00247  -0.02111   0.00527  -0.00096   0.01522  -0.00229   0.00233  -0.00033   0.00313  -0.01298 ...
   0.00178  -0.00330  -0.00083   0.00529  -0.02583   0.00005  -0.00229   0.01704  -0.00491   0.00115  -0.00803  -0.00075 ...
  -0.00199   0.00043   0.00354  -0.00631   0.01846  -0.00059   0.00233  -0.00491   0.11350  -0.02694   0.00416   0.01658 ...
   0.00571  -0.01023   0.00473   0.00443  -0.00301  -0.00129  -0.00033   0.00115  -0.02694   0.07554  -0.01140   0.00716 ...
  -0.00032   0.00360  -0.00534  -0.00701   0.02412   0.00103   0.00313  -0.00803   0.00416  -0.01140   0.14361  -0.00548 ...
   0.01126  -0.01996  -0.00938   0.04436   0.00114   0.00346  -0.01298  -0.00075   0.01658   0.00716  -0.00548   0.08299 ...
   ...  only 12  components have been written...
 Atom # 26
   1.99369   0.03114   0.00641  -0.01236   0.00333   0.00138  -0.00272  -0.00120
   0.03114   0.00119   0.00295  -0.00568  -0.00399   0.00015  -0.00025  -0.00013
   0.00641   0.00295   1.74761  -0.03192   0.00189   0.03070  -0.00686  -0.00058
  -0.01236  -0.00568  -0.03192   1.76458  -0.00089  -0.00686   0.03417  -0.00025
   0.00333  -0.00399   0.00189  -0.00089   1.74138  -0.00059  -0.00024   0.02941
   0.00138   0.00015   0.03070  -0.00686  -0.00059   0.00076  -0.00033  -0.00003
  -0.00272  -0.00025  -0.00686   0.03417  -0.00024  -0.00033   0.00092   0.00002
  -0.00120  -0.00013  -0.00058  -0.00025   0.02941  -0.00003   0.00002   0.00064
 
 
================================================================================
 
 ----iterations are completed or convergence reached----
 
 Mean square residual over all n,k,spin=   29.085E-29; max=  15.829E-28
 reduced coordinates (array xred) for   26 atoms
       0.818554147750      0.870044956690      0.872439959830
       0.394959247870      0.624150627660      0.163726496810
       0.180389006850      0.371550509170      0.625149144920
       0.605333115230      0.124342050720      0.335800384250
       0.189368934590      0.161306729650      0.118547562190
       0.701233523480      0.330823168250      0.796011245900
       0.810311492540      0.661531579910      0.381501149720
       0.298925068890      0.831407173460      0.703350920120
       0.305115864000      0.319083016400      0.304595662960
       0.901683480110      0.183374011250      0.714150340300
       0.697207766740      0.818831445750      0.194553594100
       0.098705268294      0.683834506980      0.783569557180
       0.958879712050      0.164037596120      0.229779979160
       0.525333312850      0.311656498850      0.641339813510
       0.042316574468      0.661855573700      0.273790453900
       0.473975101740      0.811113423370      0.859033241470
       0.339482589780      0.973932993650      0.200521711970
       0.299671573550      0.043911925363      0.572190507440
       0.699481365440      0.542447674070      0.929026176080
       0.661400747320      0.473930846580      0.299948355620
       0.249216283310      0.366946149810      0.962328512490
       0.748850621690      0.867617077020      0.537644034750
       0.368886497540      0.668908245830      0.515464103000
       0.632496302670      0.167388415710     -0.016509098245
       0.143957621650      0.007278812564     -0.084213590188
       0.854264779630      0.508694991490      0.586259780740
 rms dE/dt=  2.9746E-04; max dE/dt=  4.8399E-04; dE/dt below (all hartree)
    1       0.000063673529     -0.000165110075      0.000483866235
    2       0.000063653037     -0.000165091434      0.000483842103
    3       0.000063681104     -0.000165160538      0.000483897907
    4       0.000063653987     -0.000165075513      0.000483848417
    5       0.000063637329     -0.000165129567      0.000483855397
    6       0.000063652023     -0.000165128024      0.000483877403
    7       0.000063645741     -0.000165174053      0.000483989616
    8       0.000063568083     -0.000165016546      0.000483924037
    9       0.000063706002     -0.000165056007      0.000483845375
   10       0.000063621493     -0.000165132860      0.000483897651
   11       0.000063664672     -0.000165143106      0.000483980135
   12       0.000063711523     -0.000164995142      0.000483878707
   13       0.000063636704     -0.000165016923      0.000483974028
   14       0.000063607464     -0.000165136332      0.000483916902
   15       0.000063553914     -0.000165026903      0.000483922751
   16       0.000063639808     -0.000165046617      0.000483836946
   17       0.000063700760     -0.000165099805      0.000483895310
   18       0.000063581492     -0.000165084567      0.000483872643
   19       0.000063614583     -0.000165055514      0.000483810944
   20       0.000063763266     -0.000164981560      0.000483935653
   21       0.000063715785     -0.000164966346      0.000483806875
   22       0.000063681195     -0.000165204286      0.000483840151
   23       0.000063707537     -0.000165097746      0.000483839294
   24       0.000063684155     -0.000165184152      0.000483879696
   25       0.000063580864     -0.000165123841      0.000483755416
   26       0.000063645449     -0.000164993430      0.000483744738
 
 cartesian coordinates (angstrom) at end:
    1      6.14726985609701     6.14654638058962     6.58316557097542
    2      2.87474912285799     4.40846742968233     1.32388908339961
    3      1.51175276747470     2.62359743897415     4.56794582969901
    4      4.43129513431608     0.88144758769286     2.64078788958682
    5      1.39189411953754     1.13984583041125     0.92324128827958
    6      5.28109888155528     2.33934888661849     5.99000929524228
    7      5.91045020988971     4.67488774944488     3.04491507278088
    8      2.38671511113234     5.87054494238234     5.17437440753889
    9      2.28393865941600     2.25424613573321     2.30548752501349
   10      6.67775420837279     1.29982596807486     5.47435939960530
   11      5.03888587231194     5.78470010496976     1.65693812496554
   12      0.98924693942399     4.82744367545595     5.67849416751488
   13      6.91037386530962     1.16403020198509     2.00734877391177
   14      3.97297826970674     2.20301452007793     4.81148452369990
   15      0.40405005218723     4.67227572592283     1.98672382673448
   16      3.68889835399960     5.72831294223031     6.35989435367742
   17      2.49525037173308     6.87727684889152     1.56819986716126
   18      2.33982467940730     0.31153041051625     4.23069630153854
   19      5.31786723386037     3.83315179930064     6.94708520612786
   20      4.81974996533169     3.34966299852525     2.40298511595493
   21      2.12317063346130     2.59130740005025     7.02137939960689
   22      5.53042780048765     6.12918691096215     4.14657841556702
   23      2.81609725097015     4.72401032518939     3.84721147654219
   24      4.49805775207334     1.18574063084619     0.11368547970121
   25      0.99459594078407     0.05237313876489    -0.55348627422809
   26      6.29615310268262     3.59612260080547     4.53571060889772
 
 cartesian forces (hartree/bohr) at end:
    1     -0.00000000155257     0.00000000182094     0.00000000067762
    2     -0.00000000011605     0.00000000042245     0.00000000237896
    3     -0.00000000199998     0.00000000560390    -0.00000000162705
    4     -0.00000000016176    -0.00000000077108     0.00000000191715
    5      0.00000000110254     0.00000000327976     0.00000000134135
    6      0.00000000009134     0.00000000316486    -0.00000000022511
    7      0.00000000098360     0.00000000661368    -0.00000000851530
    8      0.00000000653202    -0.00000000519791    -0.00000000397494
    9     -0.00000000404829    -0.00000000222972     0.00000000233494
   10      0.00000000244330     0.00000000352509    -0.00000000183064
   11     -0.00000000046117     0.00000000429517    -0.00000000774656
   12     -0.00000000432857    -0.00000000679231    -0.00000000010086
   13      0.00000000160852    -0.00000000516561    -0.00000000740223
   14      0.00000000356182     0.00000000378424    -0.00000000330119
   15      0.00000000758228    -0.00000000442248    -0.00000000393290
   16      0.00000000085320    -0.00000000293801     0.00000000270915
   17     -0.00000000347049     0.00000000105257    -0.00000000136306
   18      0.00000000533238    -0.00000000009749    -0.00000000013778
   19      0.00000000263343    -0.00000000227243     0.00000000453088
   20     -0.00000000796686    -0.00000000780767    -0.00000000410364
   21     -0.00000000491770    -0.00000000894987     0.00000000520694
   22     -0.00000000222965     0.00000000888400     0.00000000262894
   23     -0.00000000418864     0.00000000089929     0.00000000278911
   24     -0.00000000229830     0.00000000737445    -0.00000000027370
   25      0.00000000493015     0.00000000284783     0.00000000849691
   26      0.00000000008545    -0.00000000692363     0.00000000952299
 frms,max,avg= 4.3455327E-09 9.5229936E-09  -2.913E-06  1.237E-05 -3.541E-05 h/b
 
 cartesian forces (eV/Angstrom) at end:
    1     -0.00000007983628     0.00000009363629     0.00000003484468
    2     -0.00000000596728     0.00000002172306     0.00000012233123
    3     -0.00000010284290     0.00000028816412    -0.00000008366608
    4     -0.00000000831789    -0.00000003965062     0.00000009858385
    5      0.00000005669474     0.00000016865178     0.00000006897517
    6      0.00000000469705     0.00000016274338    -0.00000001157542
    7      0.00000005057854     0.00000034008883    -0.00000043787426
    8      0.00000033589002    -0.00000026728703    -0.00000020439949
    9     -0.00000020817127    -0.00000011465684     0.00000012006726
   10      0.00000012563951     0.00000018126747    -0.00000009413516
   11     -0.00000002371445     0.00000022086659    -0.00000039834424
   12     -0.00000022258397    -0.00000034927472    -0.00000000518647
   13      0.00000008271358    -0.00000026562643    -0.00000038063819
   14      0.00000018315602     0.00000019459358    -0.00000016975378
   15      0.00000038989625    -0.00000022741316    -0.00000020223799
   16      0.00000004387322    -0.00000015107841     0.00000013930993
   17     -0.00000017845977     0.00000005412548    -0.00000007009141
   18      0.00000027420192    -0.00000000501314    -0.00000000708487
   19      0.00000013541665    -0.00000011685318     0.00000023298745
   20     -0.00000040967253    -0.00000040148628    -0.00000021101783
   21     -0.00000025287836    -0.00000046022052     0.00000026775164
   22     -0.00000011465340     0.00000045683354     0.00000013518575
   23     -0.00000021538833     0.00000004624318     0.00000014342188
   24     -0.00000011818356     0.00000037920922    -0.00000001407428
   25      0.00000025351859     0.00000014644108     0.00000043692866
   26      0.00000000439389    -0.00000035602726     0.00000048969198
 frms,max,avg= 2.2345626E-07 4.8969198E-07  -1.498E-04  6.363E-04 -1.821E-03 e/A
 length scales=  1.000000000000  1.000000000000  1.000000000000 bohr
              =  0.529177208590  0.529177208590  0.529177208590 angstroms
 Fermi (or HOMO) energy (hartree) =   0.12010   Average Vxc (hartree)=  -0.38883
 Eigenvalues (hartree) for nkpt=   4  k points:
 kpt#   1, nband=104, wtk=  0.25000, kpt=  0.2500  0.2500  0.2500 (reduced coord)
  -2.13242   -2.13207   -2.12527   -2.12479   -1.19152   -1.19114   -1.19013   -1.18974
  -1.18420   -1.18382   -1.18289   -1.18242   -1.17666   -1.17614   -1.17609   -1.17566
  -0.97928   -0.97859   -0.97451   -0.97351   -0.52870   -0.52502   -0.51421   -0.51020
  -0.50489   -0.50038   -0.49631   -0.49481   -0.49174   -0.48789   -0.48236   -0.48007
  -0.47718   -0.47532   -0.47253   -0.46761   -0.46562   -0.46154   -0.37898   -0.37796
  -0.37464   -0.37155   -0.36777   -0.36581   -0.36178   -0.35703   -0.35452   -0.35142
  -0.34544   -0.33694   -0.06498   -0.06080   -0.05831   -0.05504   -0.05058   -0.04588
  -0.04326   -0.04077   -0.03791   -0.03367   -0.02793   -0.02550   -0.02325   -0.01823
  -0.01676   -0.01539   -0.01030   -0.00891   -0.00797   -0.00020    0.00518    0.01075
   0.01232    0.02404    0.02786    0.02990    0.03223    0.03583    0.04069    0.04347
   0.04969    0.05116    0.05488    0.05647    0.05924    0.06220    0.06463    0.06949
   0.07164    0.07541    0.07796    0.08247    0.08563    0.08977    0.09103    0.09495
   0.09576    0.09783    0.10016    0.10125    0.10521    0.10865    0.11547    0.11680
 prteigrs : prtvol=0 or 1, do not print more k-points.
 

--- !EnergyTerms
iteration_state     : {dtset: 1, }
comment             : Components of total free energy in Hartree
kinetic             :  2.14172850631207E+02
hartree             :  1.84596958008706E+02
xc                  : -9.12717536358917E+01
Ewald energy        : -5.06822454799176E+02
psp_core            :  3.68589790133077E+01
local_psp           : -5.76379149658748E+02
spherical_terms     :  4.44846090803432E+01
total_energy        : -6.94359961360251E+02
total_energy_eV     : -1.88944954455885E+04
...


--- !EnergyTermsDC
iteration_state     : {dtset: 1, }
comment             : '"Double-counting" decomposition of free energy'
band_energy         : -7.64121891563101E+01
Ewald energy        : -5.06822454799176E+02
psp_core            :  3.68589790133077E+01
xc_dc               : -1.56710853005951E+02
spherical_terms     :  8.72655658787777E+00
total_energy_dc     : -6.94359961360251E+02
total_energy_dc_eV  : -1.88944954455886E+04
...

 
 Cartesian components of stress tensor (hartree/bohr^3)
  sigma(1 1)= -3.39893134E-05  sigma(3 2)= -1.44665864E-11
  sigma(2 2)= -1.62641550E-11  sigma(3 1)= -5.25016033E-12
  sigma(3 3)= -9.31967351E-12  sigma(2 1)=  1.36044763E-11
 
-Cartesian components of stress tensor (GPa)         [Pressure=  3.3333E-01 GPa]
- sigma(1 1)= -9.99999956E-01  sigma(3 2)= -4.25621594E-07
- sigma(2 2)= -4.78507879E-07  sigma(3 1)= -1.54465024E-07
- sigma(3 3)= -2.74194215E-07  sigma(2 1)=  4.00257446E-07
 
== END DATASET(S) ==============================================================
================================================================================
  
 -outvars: echo values of variables after computation  --------
-          iomode           1
            acell      1.0000000000E+00  1.0000000000E+00  1.0000000000E+00 Bohr
              amu      1.38905500E+02  9.59400000E+01  1.59994000E+01
        autoparal           1
           bandpp          26
     densfor_pred           6
           diemac      4.00000000E+00
             ecut      3.00000000E+01 Hartree
           ecutsm      5.00000000E-01 Hartree
           etotal1    -6.9435996136E+02
            fcart1    -1.5525686254E-09  1.8209361277E-09  6.7762124154E-10
                      -1.1604505109E-10  4.2244626195E-10  2.3789638925E-09
                      -1.9999760867E-09  5.6039003581E-09 -1.6270462508E-09
                      -1.6175722520E-10 -7.7108192250E-10  1.9171507245E-09
                       1.1025372082E-09  3.2797551234E-09  1.3413536793E-09
                       9.1343000248E-11  3.1648550264E-09 -2.2510616226E-10
                       9.8359616330E-10  6.6136753735E-09 -8.5152994172E-09
                       6.5320215055E-09 -5.1979055918E-09 -3.9749375051E-09
                      -4.0482869761E-09 -2.2297207055E-09  2.3349366928E-09
                       2.4432997597E-09  3.5250914275E-09 -1.8306375466E-09
                      -4.6117274457E-10  4.2951717833E-09 -7.7465627815E-09
                      -4.3285693966E-09 -6.7923125236E-09 -1.0086080850E-10
                       1.6085231873E-09 -5.1656120608E-09 -7.4022349399E-09
                       3.5618178497E-09  3.7842429651E-09 -3.3011856328E-09
                       7.5822754468E-09 -4.4224822849E-09 -3.9329031447E-09
                       8.5319833099E-10 -2.9380075779E-09  2.7091469404E-09
                      -3.4704902401E-09  1.0525730612E-09 -1.3630609454E-09
                       5.3323788076E-09 -9.7489998626E-11 -1.3777879695E-10
                       2.6334347458E-09 -2.2724327689E-09  4.5308848737E-09
                      -7.9668629292E-09 -7.8076657643E-09 -4.1036438756E-09
                      -4.9177016219E-09 -8.9498650239E-09  5.2069407537E-09
                      -2.2296537745E-09  8.8839986324E-09  2.6289445633E-09
                      -4.1886364886E-09  8.9928684013E-10  2.7891116557E-09
                      -2.2983044712E-09  7.3744459310E-09 -2.7370112576E-10
                       4.9301521104E-09  2.8478257902E-09  8.4969103639E-09
                       8.5447515423E-11 -6.9236284791E-09  9.5229935521E-09
-          fftalg         401
             iscf           7
              ixc     -116133
           jdtset        1
              kpt      2.50000000E-01  2.50000000E-01  2.50000000E-01
                      -2.50000000E-01  2.50000000E-01  2.50000000E-01
                       2.50000000E-01 -2.50000000E-01  2.50000000E-01
                      -2.50000000E-01 -2.50000000E-01  2.50000000E-01
         kptrlatt        2    0    0      0    2    0      0    0    2
          kptrlen      2.66800323E+01
P           mkmem           1
            natom          26
            nband         104
           ndtset           1
            ngfft          72      75      75
          ngfftdg          72      75      75
             nkpt           4
-           npfft          15
-           npkpt           4
            nstep         100
             nsym           1
           ntypat           3
              occ      2.000000  2.000000  2.000000  2.000000  2.000000  2.000000
                       2.000000  2.000000  2.000000  2.000000  2.000000  2.000000
                       2.000000  2.000000  2.000000  2.000000  2.000000  2.000000
                       2.000000  2.000000  2.000000  2.000000  2.000000  2.000000
                       2.000000  2.000000  2.000000  2.000000  2.000000  2.000000
                       2.000000  2.000000  2.000000  2.000000  2.000000  2.000000
                       2.000000  2.000000  2.000000  2.000000  2.000000  2.000000
                       2.000000  2.000000  2.000000  2.000000  2.000000  2.000000
                       2.000000  2.000000  2.000000  2.000000  2.000000  2.000000
                       2.000000  2.000000  2.000000  2.000000  2.000000  2.000000
                       2.000000  2.000000  2.000000  2.000000  2.000000  2.000000
                       2.000000  2.000000  2.000000  2.000000  2.000000  2.000000
                       2.000000  2.000000  2.000000  2.000000  2.000000  2.000000
                       2.000000  2.000000  2.000000  2.000000  2.000000  2.000000
                       2.000000  2.000000  2.000000  2.000000  2.000000  2.000000
                       2.000000  2.000000  2.000000  2.000000  2.000000  2.000000
                       2.000000  2.000000  2.000000  2.000000  2.000000  2.000000
                       2.000000  2.000000
        paral_kgb           1
        pawecutdg      3.00000000E+01 Hartree
         pawmixdg           1
         pawxcdev           0
           prteig           0
            rprim      1.3453580123E+01  1.2237656658E-02  6.9521853920E-01
                       1.1913362974E-02  1.3340010778E+01 -1.3551169519E-03
                       6.8062852132E-01 -1.3031979934E-03  1.3608369122E+01
           shiftk      5.00000000E-01  5.00000000E-01  5.00000000E-01
          spgroup           1
           strten1    -3.3989313380E-05 -1.6264154953E-11 -9.3196735051E-12
                      -1.4466586363E-11 -5.2501603325E-12  1.3604476345E-11
           tolvrs      1.00000000E-20
            typat      1  1  1  1  2  2  2  2  3  3  3  3  3  3  3  3  3  3  3  3
                       3  3  3  3  3  3
           useylm           1
         wfoptalg         114
              wtk        0.25000    0.25000    0.25000    0.25000
           xangst      6.1472698561E+00  6.1465463806E+00  6.5831655710E+00
                       2.8747491229E+00  4.4084674297E+00  1.3238890834E+00
                       1.5117527675E+00  2.6235974390E+00  4.5679458297E+00
                       4.4312951343E+00  8.8144758769E-01  2.6407878896E+00
                       1.3918941195E+00  1.1398458304E+00  9.2324128828E-01
                       5.2810988816E+00  2.3393488866E+00  5.9900092952E+00
                       5.9104502099E+00  4.6748877494E+00  3.0449150728E+00
                       2.3867151111E+00  5.8705449424E+00  5.1743744075E+00
                       2.2839386594E+00  2.2542461357E+00  2.3054875250E+00
                       6.6777542084E+00  1.2998259681E+00  5.4743593996E+00
                       5.0388858723E+00  5.7847001050E+00  1.6569381250E+00
                       9.8924693942E-01  4.8274436755E+00  5.6784941675E+00
                       6.9103738653E+00  1.1640302020E+00  2.0073487739E+00
                       3.9729782697E+00  2.2030145201E+00  4.8114845237E+00
                       4.0405005219E-01  4.6722757259E+00  1.9867238267E+00
                       3.6888983540E+00  5.7283129422E+00  6.3598943537E+00
                       2.4952503717E+00  6.8772768489E+00  1.5681998672E+00
                       2.3398246794E+00  3.1153041052E-01  4.2306963015E+00
                       5.3178672339E+00  3.8331517993E+00  6.9470852061E+00
                       4.8197499653E+00  3.3496629985E+00  2.4029851160E+00
                       2.1231706335E+00  2.5913074001E+00  7.0213793996E+00
                       5.5304278005E+00  6.1291869110E+00  4.1465784156E+00
                       2.8160972510E+00  4.7240103252E+00  3.8472114765E+00
                       4.4980577521E+00  1.1857406308E+00  1.1368547970E-01
                       9.9459594078E-01  5.2373138765E-02 -5.5348627423E-01
                       6.2961531027E+00  3.5961226008E+00  4.5357106089E+00
            xcart      1.1616656493E+01  1.1615289322E+01  1.2440380017E+01
                       5.4324885430E+00  8.3307961078E+00  2.5017877979E+00
                       2.8567987112E+00  4.9578806426E+00  8.6321666080E+00
                       8.3739342178E+00  1.6656945412E+00  4.9903658864E+00
                       2.6302986919E+00  2.1539964532E+00  1.7446731894E+00
                       9.9798305668E+00  4.4207287250E+00  1.1319477101E+01
                       1.1169132219E+01  8.8342575484E+00  5.7540555855E+00
                       4.5102379173E+00  1.1093722192E+01  9.7781505393E+00
                       4.3160185706E+00  4.2599078327E+00  4.3567400251E+00
                       1.2619126637E+01  2.4563151001E+00  1.0345040018E+01
                       9.5221143135E+00  1.0931498959E+01  3.1311592753E+00
                       1.8694057933E+00  9.1225464685E+00  1.0730798824E+01
                       1.3058714081E+01  2.1996982922E+00  3.7933394359E+00
                       7.5078408617E+00  4.1630941097E+00  9.0923880424E+00
                       7.6354394261E-01  8.8293215393E+00  3.7543639342E+00
                       6.9710076211E+00  1.0824942664E+01  1.2018458563E+01
                       4.7153398356E+00  1.2996169784E+01  2.9634682706E+00
                       4.4216278430E+00  5.8870715794E-01  7.9948573613E+00
                       1.0049312683E+01  7.2436071265E+00  1.3128088461E+01
                       9.1080074635E+00  6.3299457047E+00  4.5409837706E+00
                       4.0122110306E+00  4.8968613122E+00  1.3268484140E+01
                       1.0450993941E+01  1.1582484679E+01  7.8358975940E+00
                       5.3216525679E+00  8.9270857635E+00  7.2701760660E+00
                       8.5000972813E+00  2.2407250569E+00  2.1483442192E-01
                       1.8795139410E+00  9.8970888985E-02 -1.0459374766E+00
                       1.1898005055E+01  6.7956868558E+00  8.5712508688E+00
             xred      8.1855414775E-01  8.7004495669E-01  8.7243995983E-01
                       3.9495924787E-01  6.2415062766E-01  1.6372649681E-01
                       1.8038900685E-01  3.7155050917E-01  6.2514914492E-01
                       6.0533311523E-01  1.2434205072E-01  3.3580038425E-01
                       1.8936893459E-01  1.6130672965E-01  1.1854756219E-01
                       7.0123352348E-01  3.3082316825E-01  7.9601124590E-01
                       8.1031149254E-01  6.6153157991E-01  3.8150114972E-01
                       2.9892506889E-01  8.3140717346E-01  7.0335092012E-01
                       3.0511586400E-01  3.1908301640E-01  3.0459566296E-01
                       9.0168348011E-01  1.8337401125E-01  7.1415034030E-01
                       6.9720776674E-01  8.1883144575E-01  1.9455359410E-01
                       9.8705268294E-02  6.8383450698E-01  7.8356955718E-01
                       9.5887971205E-01  1.6403759612E-01  2.2977997916E-01
                       5.2533331285E-01  3.1165649885E-01  6.4133981351E-01
                       4.2316574468E-02  6.6185557370E-01  2.7379045390E-01
                       4.7397510174E-01  8.1111342337E-01  8.5903324147E-01
                       3.3948258978E-01  9.7393299365E-01  2.0052171197E-01
                       2.9967157355E-01  4.3911925363E-02  5.7219050744E-01
                       6.9948136544E-01  5.4244767407E-01  9.2902617608E-01
                       6.6140074732E-01  4.7393084658E-01  2.9994835562E-01
                       2.4921628331E-01  3.6694614981E-01  9.6232851249E-01
                       7.4885062169E-01  8.6761707702E-01  5.3764403475E-01
                       3.6888649754E-01  6.6890824583E-01  5.1546410300E-01
                       6.3249630267E-01  1.6738841571E-01 -1.6509098245E-02
                       1.4395762165E-01  7.2788125640E-03 -8.4213590188E-02
                       8.5426477963E-01  5.0869499149E-01  5.8625978074E-01
            znucl       57.00000   42.00000    8.00000
 
================================================================================


- Timing analysis has been suppressed with timopt=0



================================================================================

 Suggested references for the acknowledgment of ABINIT usage.

 The users of ABINIT have little formal obligations with respect to the ABINIT group
 (those specified in the GNU General Public License, http://www.gnu.org/copyleft/gpl.txt).
 However, it is common practice in the scientific literature,
 to acknowledge the efforts of people that have made the research possible.
 In this spirit, please find below suggested citations of work written by ABINIT developers,
 corresponding to implementations inside of ABINIT that you have used in the present run.
 Note also that it will be of great value to readers of publications presenting these results,
 to read papers enabling them to understand the theoretical formalism and details
 of the ABINIT implementation.
 For information on why they are suggested, see also https://docs.abinit.org/theory/acknowledgments.
-
- [1] Implementation of the Projector Augmented-Wave Method in the ABINIT code.
- M. Torrent, F. Jollet, F. Bottin, G. Zerah, and X. Gonze Comput. Mat. Science 42, 337, (2008).
- Comment: PAW calculations. Strong suggestion to cite this paper.
- DOI and bibtex: see https://docs.abinit.org/theory/bibliography/#torrent2008
-
- [2] Libxc: A library of exchange and correlation functionals for density functional theory.
- M.A.L. Marques, M.J.T. Oliveira, T. Burnus, Computer Physics Communications 183, 2227 (2012).
- Comment: to be cited when LibXC is used (negative value of ixc)
- Strong suggestion to cite this paper.
- DOI and bibtex: see https://docs.abinit.org/theory/bibliography/#marques2012
-
- [3] Large scale ab initio calculations based on three levels of parallelization
- F. Bottin, S. Leroux, A. Knyazev, G. Zerah, Comput. Mat. Science 42, 329, (2008).
- Comment: in case LOBPCG algorithm is used (wfoptalg=4/14/114).
- Strong suggestion to cite this paper in your publications.
- This paper is also available at http://www.arxiv.org/abs/0707.3405
- DOI and bibtex: see https://docs.abinit.org/theory/bibliography/#bottin2008
-
- [4] The Abinit project: Impact, environment and recent developments.
- Computer Phys. Comm. 248, 107042 (2020).
- X.Gonze, B. Amadon, G. Antonius, F.Arnardi, L.Baguet, J.-M.Beuken,
- J.Bieder, F.Bottin, J.Bouchet, E.Bousquet, N.Brouwer, F.Bruneval,
- G.Brunin, T.Cavignac, J.-B. Charraud, Wei Chen, M.Cote, S.Cottenier,
- J.Denier, G.Geneste, Ph.Ghosez, M.Giantomassi, Y.Gillet, O.Gingras,
- D.R.Hamann, G.Hautier, Xu He, N.Helbig, N.Holzwarth, Y.Jia, F.Jollet,
- W.Lafargue-Dit-Hauret, K.Lejaeghere, M.A.L.Marques, A.Martin, C.Martins,
- H.P.C. Miranda, F.Naccarato, K. Persson, G.Petretto, V.Planes, Y.Pouillon,
- S.Prokhorenko, F.Ricci, G.-M.Rignanese, A.H.Romero, M.M.Schmitt, M.Torrent,
- M.J.van Setten, B.Van Troeye, M.J.Verstraete, G.Zerah and J.W.Zwanzig
- Comment: the fifth generic paper describing the ABINIT project.
- Note that a version of this paper, that is not formatted for Computer Phys. Comm. 
- is available at https://www.abinit.org/sites/default/files/ABINIT20.pdf .
- The licence allows the authors to put it on the Web.
- DOI and bibtex: see https://docs.abinit.org/theory/bibliography/#gonze2020
-
- [5] ABINIT: Overview, and focus on selected capabilities
- J. Chem. Phys. 152, 124102 (2020).
- A. Romero, D.C. Allan, B. Amadon, G. Antonius, T. Applencourt, L.Baguet,
- J.Bieder, F.Bottin, J.Bouchet, E.Bousquet, F.Bruneval,
- G.Brunin, D.Caliste, M.Cote,
- J.Denier, C. Dreyer, Ph.Ghosez, M.Giantomassi, Y.Gillet, O.Gingras,
- D.R.Hamann, G.Hautier, F.Jollet, G. Jomard,
- A.Martin, 
- H.P.C. Miranda, F.Naccarato, G.Petretto, N.A. Pike, V.Planes,
- S.Prokhorenko, T. Rangel, F.Ricci, G.-M.Rignanese, M.Royo, M.Stengel, M.Torrent,
- M.J.van Setten, B.Van Troeye, M.J.Verstraete, J.Wiktor, J.W.Zwanziger, and X.Gonze.
- Comment: a global overview of ABINIT, with focus on selected capabilities .
- Note that a version of this paper, that is not formatted for J. Chem. Phys 
- is available at https://www.abinit.org/sites/default/files/ABINIT20_JPC.pdf .
- The licence allows the authors to put it on the Web.
- DOI and bibtex: see https://docs.abinit.org/theory/bibliography/#romero2020
-
- [6] Recent developments in the ABINIT software package.
- Computer Phys. Comm. 205, 106 (2016).
- X.Gonze, F.Jollet, F.Abreu Araujo, D.Adams, B.Amadon, T.Applencourt,
- C.Audouze, J.-M.Beuken, J.Bieder, A.Bokhanchuk, E.Bousquet, F.Bruneval
- D.Caliste, M.Cote, F.Dahm, F.Da Pieve, M.Delaveau, M.Di Gennaro,
- B.Dorado, C.Espejo, G.Geneste, L.Genovese, A.Gerossier, M.Giantomassi,
- Y.Gillet, D.R.Hamann, L.He, G.Jomard, J.Laflamme Janssen, S.Le Roux,
- A.Levitt, A.Lherbier, F.Liu, I.Lukacevic, A.Martin, C.Martins,
- M.J.T.Oliveira, S.Ponce, Y.Pouillon, T.Rangel, G.-M.Rignanese,
- A.H.Romero, B.Rousseau, O.Rubel, A.A.Shukri, M.Stankovski, M.Torrent,
- M.J.Van Setten, B.Van Troeye, M.J.Verstraete, D.Waroquier, J.Wiktor,
- B.Xu, A.Zhou, J.W.Zwanziger.
- Comment: the fourth generic paper describing the ABINIT project.
- Note that a version of this paper, that is not formatted for Computer Phys. Comm. 
- is available at https://www.abinit.org/sites/default/files/ABINIT16.pdf .
- The licence allows the authors to put it on the Web.
- DOI and bibtex: see https://docs.abinit.org/theory/bibliography/#gonze2016
-
- Proc.   0 individual time (sec): cpu=        254.3  wall=        262.7
 
================================================================================
 
 Calculation completed.
.Delivered   0 WARNINGs and   0 COMMENTs to log file.
+Overall time at end (sec) : cpu=      15649.1  wall=      15750.5
