
.Version 9.3.2 of ABINIT 
.(MPI version, prepared for a x86_64_linux_intel19.1 computer) 

.Copyright (C) 1998-2020 ABINIT group . 
 ABINIT comes with ABSOLUTELY NO WARRANTY.
 It is free software, and you are welcome to redistribute it
 under certain conditions (GNU General Public License,
 see ~abinit/COPYING or http://www.gnu.org/copyleft/gpl.txt).

 ABINIT is a project of the Universite Catholique de Louvain,
 Corning Inc. and other collaborators, see ~abinit/doc/developers/contributors.txt .
 Please read https://docs.abinit.org/theory/acknowledgments for suggested
 acknowledgments of the ABINIT effort.
 For more information, see https://www.abinit.org .

.Starting date : Mon 27 Sep 2021.
- ( at 15h09 )
  
- input  file    -> abi.in
- output file    -> abi.out
- root for input  files -> abi-i
- root for output files -> abi-o
 
- inpspheads : Reading pseudopotential header in XML form from 
-   ~/ABINIT_PAW_PBE/paw_pbe_standard/La.xml
- inpspheads : Reading pseudopotential header in XML form from 
-   ~/ABINIT_PAW_PBE/paw_pbe_standard/Mo.xml
- inpspheads : Reading pseudopotential header in XML form from 
-   ~/ABINIT_PAW_PBE/paw_pbe_standard/O.xml
 
 DATASET    1 : space group P1 (#  1); Bravais aP (primitive triclinic)
================================================================================
 Values of the parameters that define the memory need for DATASET  1.
     intxc =       0    ionmov =       0      iscf =       7    lmnmax =      32
     lnmax =       8     mgfft =      75  mpssoang =       4    mqgrid =    3365
     natom =      26  nloc_mem =       2    nspden =       1   nspinor =       1
    nsppol =       1      nsym =       1    n1xccc =       1    ntypat =       3
    occopt =       1   xclevel =       2
-    mband =         104        mffmem =           1         mkmem =           1
       mpw =        1168          nfft =       27000          nkpt =           4
Pmy_natom=         7
 PAW method is used; the additional fine FFT grid is defined by:
   mgfftf=        75    nfftf =     27000
================================================================================
P This job should need less than                      39.958 Mbytes of memory.
  Rough estimation (10% accuracy) of disk space for files :
_ WF disk file :    111.213 Mbytes ; DEN or POT disk file :      0.208 Mbytes.
================================================================================
 
--------------------------------------------------------------------------------
------------- Echo of variables that govern the present computation ------------
--------------------------------------------------------------------------------
-
- outvars: echo of selected default values                                      
-   iomode0 =  0 , fftalg0 =512 , wfoptalg0 = 10
-
- outvars: echo of global parameters not present in the input file              
-  max_nthreads =    1
-
 -outvars: echo values of preprocessed input variables --------
-          iomode           1
            acell      1.0000000000E+00  1.0000000000E+00  1.0000000000E+00 Bohr
              amu      1.38905500E+02  9.59400000E+01  1.59994000E+01
        autoparal           1
           bandpp          26
     densfor_pred           6
           diemac      4.00000000E+00
             ecut      3.00000000E+01 Hartree
           ecutsm      5.00000000E-01 Hartree
-          fftalg         401
             iscf           7
              ixc     -116133
           jdtset        1
              kpt      2.50000000E-01  2.50000000E-01  2.50000000E-01
                      -2.50000000E-01  2.50000000E-01  2.50000000E-01
                       2.50000000E-01 -2.50000000E-01  2.50000000E-01
                      -2.50000000E-01 -2.50000000E-01  2.50000000E-01
         kptrlatt        2    0    0      0    2    0      0    0    2
          kptrlen      2.65587554E+01
P           mkmem           1
            natom          26
            nband         104
           ndtset           1
            ngfft          72      75      75
          ngfftdg          72      75      75
             nkpt           4
-           npfft          15
-           npkpt           4
            nstep         100
             nsym           1
           ntypat           3
              occ      2.000000  2.000000  2.000000  2.000000  2.000000  2.000000
                       2.000000  2.000000  2.000000  2.000000  2.000000  2.000000
                       2.000000  2.000000  2.000000  2.000000  2.000000  2.000000
                       2.000000  2.000000  2.000000  2.000000  2.000000  2.000000
                       2.000000  2.000000  2.000000  2.000000  2.000000  2.000000
                       2.000000  2.000000  2.000000  2.000000  2.000000  2.000000
                       2.000000  2.000000  2.000000  2.000000  2.000000  2.000000
                       2.000000  2.000000  2.000000  2.000000  2.000000  2.000000
                       2.000000  2.000000  2.000000  2.000000  2.000000  2.000000
                       2.000000  2.000000  2.000000  2.000000  2.000000  2.000000
                       2.000000  2.000000  2.000000  2.000000  2.000000  2.000000
                       2.000000  2.000000  2.000000  2.000000  2.000000  2.000000
                       2.000000  2.000000  2.000000  2.000000  2.000000  2.000000
                       2.000000  2.000000  2.000000  2.000000  2.000000  2.000000
                       2.000000  2.000000  2.000000  2.000000  2.000000  2.000000
                       2.000000  2.000000  2.000000  2.000000  2.000000  2.000000
                       2.000000  2.000000  2.000000  2.000000  2.000000  2.000000
                       2.000000  2.000000
        paral_kgb           1
        pawecutdg      3.00000000E+01 Hartree
         pawmixdg           1
         pawxcdev           0
           prteig           0
            rprim      1.3700796787E+01  4.7585969917E-03  7.1570008543E-01
                       4.9148298188E-03  1.3279376547E+01 -2.6228094450E-03
                       7.1746318855E-01 -2.9973852765E-03  1.3538211561E+01
           shiftk      5.00000000E-01  5.00000000E-01  5.00000000E-01
          spgroup           1
           tolvrs      1.00000000E-20
            typat      1  1  1  1  2  2  2  2  3  3  3  3  3  3  3  3  3  3  3  3
                       3  3  3  3  3  3
           useylm           1
         wfoptalg         114
              wtk        0.25000    0.25000    0.25000    0.25000
           xangst      6.2642348886E+00  6.0973642249E+00  6.5357613786E+00
                       2.9336473039E+00  4.3832027831E+00  1.3355258069E+00
                       1.5573638508E+00  2.5877398002E+00  4.5828707688E+00
                       4.5077326113E+00  8.7052708998E-01  2.6222124802E+00
                       1.4195638266E+00  1.1352917791E+00  9.3599820385E-01
                       5.4018026878E+00  2.3256397646E+00  5.9528436839E+00
                       6.0209096131E+00  4.6506888125E+00  3.0245739787E+00
                       2.4221480535E+00  5.8414739875E+00  5.1695729958E+00
                       2.3265298747E+00  2.2451734000E+00  2.3151142221E+00
                       6.8103413392E+00  1.2937250535E+00  5.4435156199E+00
                       5.1193114178E+00  5.7594610916E+00  1.6432512628E+00
                       1.0163042698E+00  4.8055248732E+00  5.6793786870E+00
                       7.0694484182E+00  1.1576510695E+00  2.0279858478E+00
                       4.0766869679E+00  2.1858971919E+00  4.7957728917E+00
                       3.7311707936E-01  4.6632620471E+00  1.9373274151E+00
                       3.7464544760E+00  5.6973656934E+00  6.3275459807E+00
                       2.5330607804E+00  6.8411425816E+00  1.5552923109E+00
                       2.4172306516E+00  3.0602603127E-01  4.2084634691E+00
                       5.4024150775E+00  3.8160475863E+00  6.9170640420E+00
                       4.9114769233E+00  3.3287098450E+00  2.4041323031E+00
                       2.1921665838E+00  2.5883671974E+00  7.0019525994E+00
                       5.6271353108E+00  6.1067895265E+00  4.1223494965E+00
                       2.8318791543E+00  4.6834780153E+00  3.8401518341E+00
                       4.6110274332E+00  1.1663067790E+00  1.1495333440E-01
                       1.0094060655E+00  7.4192236853E-02 -5.6072761588E-01
                       6.4290023635E+00  3.5925103537E+00  4.5246292601E+00
            xcart      1.1837688372E+01  1.1522348518E+01  1.2350799075E+01
                       5.5437899748E+00  8.2830528450E+00  2.5237780184E+00
                       2.9429911673E+00  4.8901195255E+00  8.6603706554E+00
                       8.5183801156E+00  1.6450577913E+00  4.9552634497E+00
                       2.6825868604E+00  2.1453905434E+00  1.7687802661E+00
                       1.0207927704E+01  4.3948222388E+00  1.1249244274E+01
                       1.1377870240E+01  8.7885281850E+00  5.7156164883E+00
                       4.5771964744E+00  1.1038786049E+01  9.7690771861E+00
                       4.3965043032E+00  4.2427628467E+00  4.3749318461E+00
                       1.2869680003E+01  2.4447860424E+00  1.0286753722E+01
                       9.6740965686E+00  1.0883804136E+01  3.1052948542E+00
                       1.9205367376E+00  9.0811259350E+00  1.0732470323E+01
                       1.3359321421E+01  2.1876434788E+00  3.8323378537E+00
                       7.7038218989E+00  4.1307470473E+00  9.0626973608E+00
                       7.0508909549E-01  8.8122881549E+00  3.6610182443E+00
                       7.0797729290E+00  1.0766460839E+01  1.1957328997E+01
                       4.7867911530E+00  1.2927885915E+01  2.9390765241E+00
                       4.5679039315E+00  5.7830538863E-01  7.9528433969E+00
                       1.0209084953E+01  7.2112848482E+00  1.3071356683E+01
                       9.2813462931E+00  6.2903499829E+00  4.5431516400E+00
                       4.1425944810E+00  4.8913051344E+00  1.3231772808E+01
                       1.0633744650E+01  1.1540159756E+01  7.7901115724E+00
                       5.3514760431E+00  8.8504907982E+00  7.2568352751E+00
                       8.7135790399E+00  2.2040003992E+00  2.1723032008E-01
                       1.9075010208E+00  1.4020300884E-01 -1.0596216292E+00
                       1.2149053775E+01  6.7888606981E+00  8.5503101545E+00
             xred      8.1818604881E-01  8.6759046297E-01  8.6920629968E-01
                       3.9573605666E-01  6.2364871510E-01  1.6561902512E-01
                       1.8167267289E-01  3.6832631788E-01  6.3016547787E-01
                       6.0420319657E-01  1.2373954922E-01  3.3410319342E-01
                       1.8942094266E-01  1.6151743629E-01  1.2066847260E-01
                       7.0337334163E-01  3.3087807204E-01  7.9380556994E-01
                       8.1034414624E-01  6.6161310211E-01  3.7947319524E-01
                       2.9681021393E-01  8.3132592503E-01  7.0606301706E-01
                       3.0469726221E-01  3.1946028659E-01  3.0710835433E-01
                       9.0197750644E-01  1.8394151071E-01  7.1218349216E-01
                       6.9570964955E-01  8.1939624572E-01  1.9275252917E-01
                       9.8684126618E-02  6.8399425636E-01  7.8766948089E-01
                       9.6285743382E-01  1.6444730150E-01  2.3220585717E-01
                       5.2858364999E-01  3.1102022275E-01  6.4153272426E-01
                       3.7160419643E-02  6.6365437758E-01  2.6858519321E-01
                       4.7149629916E-01  8.1079034655E-01  8.5845944656E-01
                       3.3859025087E-01  9.7345476163E-01  1.9938384231E-01
                       3.0346626246E-01  4.3569366841E-02  5.7140241947E-01
                       6.9631198312E-01  5.4300406025E-01  9.2881029943E-01
                       6.6151462398E-01  4.7352399374E-01  3.0070054025E-01
                       2.5174136129E-01  3.6846587220E-01  9.6412793166E-01
                       7.4775759214E-01  8.6888177324E-01  5.3605457993E-01
                       3.6328601053E-01  6.6647041252E-01  5.1695007423E-01
                       6.3685232369E-01  1.6573949428E-01 -1.7589490179E-02
                       1.4371822360E-01  1.0487069323E-02 -8.5864610941E-02
                       8.5584840153E-01  5.1105906761E-01  5.8642308516E-01
            znucl       57.00000   42.00000    8.00000
 
================================================================================
 
 chkinp: Checking input parameters for consistency, jdtset=   1.
 
================================================================================
== DATASET  1 ==================================================================
-   mpi_nproc: 60, omp_nthreads: 1 (-1 if OMP is not activated)
 

--- !DatasetInfo
iteration_state: {dtset: 1, }
dimensions: {natom: 26, nkpt: 4, mband: 104, nsppol: 1, nspinor: 1, nspden: 1, mpw: 1168, }
cutoff_energies: {ecut:  30.0, pawecutdg:  30.0, }
electrons: {nelect:   2.08000000E+02, charge:   0.00000000E+00, occopt:   1.00000000E+00, tsmear:   1.00000000E-02, }
meta: {optdriver: 0, ionmov: 0, optcell: 0, iscf: 7, paral_kgb: 1, }
...

 Real(R)+Recip(G) space primitive vectors, cartesian coordinates (Bohr,Bohr^-1):
 R(1)= 13.7007968  0.0047586  0.7157001  G(1)=  0.0731911 -0.0000279 -0.0038788
 R(2)=  0.0049148 13.2793765 -0.0026228  G(2)= -0.0000271  0.0753048  0.0000181
 R(3)=  0.7174632 -0.0029974 13.5382116  G(3)= -0.0038693  0.0000161  0.0740701
 Unit cell volume ucvol=  2.4562964E+03 bohr^3
 Angles (23,13,12)=  9.00228460E+01  8.39761389E+01  8.99595405E+01 degrees
 
 Coarse grid specifications (used for wave-functions):
 
 getcut: wavevector=  0.0000  0.0000  0.0000  ngfft=  72  75  75
         ecut(hartree)=     30.000   => boxcut(ratio)=   2.12854
 
 Fine grid specifications (used for densities):
 
 getcut: wavevector=  0.0000  0.0000  0.0000  ngfft=  72  75  75
         ecut(hartree)=     30.000   => boxcut(ratio)=   2.12854
 
--- Pseudopotential description ------------------------------------------------
- pspini: atom type   1  psp file is ~/ABINIT_PAW_PBE/paw_pbe_standard/La.xml
- pspatm: opening atomic psp file    ~/ABINIT_PAW_PBE/paw_pbe_standard/La.xml
- pspatm : Reading pseudopotential header in XML form from ~/ABINIT_PAW_PBE/paw_pbe_standard/La.xml
 Pseudopotential format is: paw10
 basis_size (lnmax)=  8 (lmn_size= 32), orbitals=   0   0   1   1   2   2   3   3
 Spheres core radius: rc_sph= 2.51647158
 1 radial meshes are used:
  - mesh 1: r(i)=AA*[exp(BB*(i-1))-1], size=1500 , AA= 0.15403E-03 BB= 0.87795E-02
 Shapefunction is SIN type: shapef(r)=[sin(pi*r/rshp)/(pi*r/rshp)]**2
 Radius for shape functions =  2.30494653
 mmax= 1500
 Radial grid used for partial waves is grid 1
 Radial grid used for projectors is grid 1
 Radial grid used for (t)core density is grid 1
 Radial grid used for Vloc is grid 1
 Radial grid used for pseudo valence density is grid 1
 Mesh size for Vloc has been set to 1342 to avoid numerical noise.
 Compensation charge density is not taken into account in XC energy/potential
 pspatm: atomic psp has been read  and splines computed
 
- pspini: atom type   2  psp file is ~/ABINIT_PAW_PBE/paw_pbe_standard/Mo.xml
- pspatm: opening atomic psp file    ~/ABINIT_PAW_PBE/paw_pbe_standard/Mo.xml
- pspatm : Reading pseudopotential header in XML form from ~/ABINIT_PAW_PBE/paw_pbe_standard/Mo.xml
 Pseudopotential format is: paw10
 basis_size (lnmax)=  6 (lmn_size= 18), orbitals=   0   0   1   1   2   2
 Spheres core radius: rc_sph= 2.20000000
 1 radial meshes are used:
  - mesh 1: r(i)=AA*[exp(BB*(i-1))-1], size= 846 , AA= 0.34789E-03 BB= 0.14611E-01
 Shapefunction is SIN type: shapef(r)=[sin(pi*r/rshp)/(pi*r/rshp)]**2
 Radius for shape functions =  1.90088266
 mmax=  846
 Radial grid used for partial waves is grid 1
 Radial grid used for projectors is grid 1
 Radial grid used for (t)core density is grid 1
 Radial grid used for Vloc is grid 1
 Radial grid used for pseudo valence density is grid 1
 Mesh size for Vloc has been set to  751 to avoid numerical noise.
 Compensation charge density is not taken into account in XC energy/potential
 pspatm: atomic psp has been read  and splines computed
 
- pspini: atom type   3  psp file is ~/ABINIT_PAW_PBE/paw_pbe_standard/O.xml
- pspatm: opening atomic psp file    ~/ABINIT_PAW_PBE/paw_pbe_standard/O.xml
- pspatm : Reading pseudopotential header in XML form from ~/ABINIT_PAW_PBE/paw_pbe_standard/O.xml
 Pseudopotential format is: paw10
 basis_size (lnmax)=  4 (lmn_size=  8), orbitals=   0   0   1   1
 Spheres core radius: rc_sph= 1.41465230
 1 radial meshes are used:
  - mesh 1: r(i)=AA*[exp(BB*(i-1))-1], size=2001 , AA= 0.72565E-03 BB= 0.58052E-02
 Shapefunction is SIN type: shapef(r)=[sin(pi*r/rshp)/(pi*r/rshp)]**2
 Radius for shape functions =  1.20231231
 mmax= 2001
 Radial grid used for partial waves is grid 1
 Radial grid used for projectors is grid 1
 Radial grid used for (t)core density is grid 1
 Radial grid used for Vloc is grid 1
 Radial grid used for pseudo valence density is grid 1
 Mesh size for Vloc has been set to 1762 to avoid numerical noise.
 Compensation charge density is not taken into account in XC energy/potential
 pspatm: atomic psp has been read  and splines computed
 
   8.97881771E+04                                ecore*ucvol(ha*bohr**3)
--------------------------------------------------------------------------------
 
_setup2: Arith. and geom. avg. npw (full set) are    1164.000    1163.995
 
================================================================================

--- !BeginCycle
iteration_state: {dtset: 1, }
solver: {iscf: 7, nstep: 100, nline: 4, wfoptalg: 114, }
tolerances: {tolvrs: 1.00E-20, }
...
 
     iter   Etot(hartree)      deltaE(h)  residm     vres2
 ETOT  1  -689.10632389570    -6.891E+02 1.698E-02 2.404E+04
 ETOT  2  -685.54825351871     3.558E+00 6.215E-04 4.809E+04
 ETOT  3  -693.60552665287    -8.057E+00 9.005E-04 3.017E+03
 ETOT  4  -694.25826717338    -6.527E-01 2.542E-05 6.180E+02
 ETOT  5  -694.16860059162     8.967E-02 6.804E-05 7.450E+02
 ETOT  6  -694.30714927756    -1.385E-01 5.564E-06 2.161E+02
 ETOT  7  -694.35063755261    -4.349E-02 2.412E-06 4.212E+01
 ETOT  8  -694.35753117660    -6.894E-03 6.142E-07 1.064E+01
 ETOT  9  -694.35982209820    -2.291E-03 5.653E-07 4.329E-01
 ETOT 10  -694.35975801007     6.409E-05 8.404E-08 6.180E-01
 ETOT 11  -694.35986296771    -1.050E-04 4.306E-08 1.650E-01
 ETOT 12  -694.35990327359    -4.031E-05 1.307E-08 8.555E-03
 ETOT 13  -694.35990304647     2.271E-07 2.053E-09 1.028E-02
 ETOT 14  -694.35990489033    -1.844E-06 3.746E-10 1.638E-03
 ETOT 15  -694.35990506628    -1.759E-07 3.550E-10 7.879E-04
 ETOT 16  -694.35990519719    -1.309E-07 2.567E-10 6.728E-05
 ETOT 17  -694.35990521194    -1.474E-08 1.617E-11 2.634E-05
 ETOT 18  -694.35990521362    -1.685E-09 6.510E-12 7.658E-06
 ETOT 19  -694.35990521529    -1.669E-09 6.945E-12 1.612E-06
 ETOT 20  -694.35990521548    -1.918E-10 8.081E-13 7.995E-07
 ETOT 21  -694.35990521562    -1.410E-10 1.379E-13 7.620E-08
 ETOT 22  -694.35990521563    -6.708E-12 2.907E-14 8.637E-08
 ETOT 23  -694.35990521565    -1.626E-11 1.628E-14 8.413E-09
 ETOT 24  -694.35990521565    -7.958E-13 1.698E-15 5.610E-09
 ETOT 25  -694.35990521565    -1.705E-12 1.522E-15 7.710E-10
 ETOT 26  -694.35990521565     6.821E-13 4.561E-16 4.857E-10
 ETOT 27  -694.35990521565     2.274E-13 1.092E-16 9.269E-11
 ETOT 28  -694.35990521565    -1.023E-12 1.158E-17 3.029E-11
 ETOT 29  -694.35990521565     3.411E-13 2.472E-18 4.740E-12
 ETOT 30  -694.35990521565     2.274E-13 2.217E-18 2.651E-12
 ETOT 31  -694.35990521565     4.547E-13 1.169E-18 6.743E-13
 ETOT 32  -694.35990521565    -1.023E-12 1.622E-19 1.804E-13
 ETOT 33  -694.35990521565     1.023E-12 4.999E-20 1.290E-13
 ETOT 34  -694.35990521565    -6.821E-13 2.222E-20 2.810E-14
 ETOT 35  -694.35990521565    -6.821E-13 1.206E-20 1.211E-14
 ETOT 36  -694.35990521565     6.821E-13 2.390E-21 1.706E-15
 ETOT 37  -694.35990521565    -1.137E-13 8.726E-22 1.422E-15
 ETOT 38  -694.35990521565     1.137E-13 3.038E-22 1.817E-16
 ETOT 39  -694.35990521565     2.274E-13 3.949E-23 2.809E-17
 ETOT 40  -694.35990521565     2.274E-13 3.356E-24 1.190E-17
 ETOT 41  -694.35990521565     0.000E+00 1.156E-24 2.200E-18
 ETOT 42  -694.35990521565     0.000E+00 2.568E-25 1.210E-18
 ETOT 43  -694.35990521565     0.000E+00 1.594E-25 2.108E-19
 ETOT 44  -694.35990521565     0.000E+00 4.336E-26 1.578E-19
 ETOT 45  -694.35990521565    -4.547E-13 1.754E-26 1.129E-20
 ETOT 46  -694.35990521565     2.274E-13 2.715E-27 5.055E-21
 
 At SCF step   46       vres2   =  5.06E-21 < tolvrs=  1.00E-20 =>converged.
 
 Cartesian components of stress tensor (hartree/bohr^3)
  sigma(1 1)=  3.39892934E-05  sigma(3 2)= -3.50799501E-12
  sigma(2 2)=  1.55493222E-11  sigma(3 1)= -1.21919661E-11
  sigma(3 3)= -6.49876160E-12  sigma(2 1)=  4.78931475E-13
 

--- !ResultsGS
iteration_state: {dtset: 1, }
comment   : Summary of ground state results
lattice_vectors:
- [ 13.7007968,   0.0047586,   0.7157001, ]
- [  0.0049148,  13.2793765,  -0.0026228, ]
- [  0.7174632,  -0.0029974,  13.5382116, ]
lattice_lengths: [  13.71948,   13.27938,   13.55721, ]
lattice_angles: [ 90.023,  83.976,  89.960, ] # degrees, (23, 13, 12)
lattice_volume:   2.4562964E+03
convergence: {deltae:  2.274E-13, res2:  5.055E-21, residm:  2.715E-27, diffor: null, }
etotal    :  -6.94359905E+02
entropy   :   0.00000000E+00
fermie    :   1.17070644E-01
cartesian_stress_tensor: # hartree/bohr^3
- [  3.39892934E-05,   4.78931475E-13,  -1.21919661E-11, ]
- [  4.78931475E-13,   1.55493222E-11,  -3.50799501E-12, ]
- [ -1.21919661E-11,  -3.50799501E-12,  -6.49876160E-12, ]
pressure_GPa:  -3.3333E-01
xred      :
- [  8.1819E-01,   8.6759E-01,   8.6921E-01, La]
- [  3.9574E-01,   6.2365E-01,   1.6562E-01, La]
- [  1.8167E-01,   3.6833E-01,   6.3017E-01, La]
- [  6.0420E-01,   1.2374E-01,   3.3410E-01, La]
- [  1.8942E-01,   1.6152E-01,   1.2067E-01, Mo]
- [  7.0337E-01,   3.3088E-01,   7.9381E-01, Mo]
- [  8.1034E-01,   6.6161E-01,   3.7947E-01, Mo]
- [  2.9681E-01,   8.3133E-01,   7.0606E-01, Mo]
- [  3.0470E-01,   3.1946E-01,   3.0711E-01,  O]
- [  9.0198E-01,   1.8394E-01,   7.1218E-01,  O]
- [  6.9571E-01,   8.1940E-01,   1.9275E-01,  O]
- [  9.8684E-02,   6.8399E-01,   7.8767E-01,  O]
- [  9.6286E-01,   1.6445E-01,   2.3221E-01,  O]
- [  5.2858E-01,   3.1102E-01,   6.4153E-01,  O]
- [  3.7160E-02,   6.6365E-01,   2.6859E-01,  O]
- [  4.7150E-01,   8.1079E-01,   8.5846E-01,  O]
- [  3.3859E-01,   9.7345E-01,   1.9938E-01,  O]
- [  3.0347E-01,   4.3569E-02,   5.7140E-01,  O]
- [  6.9631E-01,   5.4300E-01,   9.2881E-01,  O]
- [  6.6151E-01,   4.7352E-01,   3.0070E-01,  O]
- [  2.5174E-01,   3.6847E-01,   9.6413E-01,  O]
- [  7.4776E-01,   8.6888E-01,   5.3605E-01,  O]
- [  3.6329E-01,   6.6647E-01,   5.1695E-01,  O]
- [  6.3685E-01,   1.6574E-01,  -1.7589E-02,  O]
- [  1.4372E-01,   1.0487E-02,  -8.5865E-02,  O]
- [  8.5585E-01,   5.1106E-01,   5.8642E-01,  O]
cartesian_forces: # hartree/bohr
- [  1.55947925E-09,  -1.12661510E-09,  -8.12132649E-10, ]
- [  4.96803937E-09,   1.64374736E-09,  -2.42434514E-10, ]
- [  1.84933989E-09,  -3.16273500E-09,   1.50821050E-09, ]
- [ -2.01974957E-09,   1.42460723E-09,  -2.53906361E-10, ]
- [  6.01964727E-10,  -6.41767578E-10,  -4.16447110E-10, ]
- [ -4.92844859E-09,  -1.42819755E-09,   3.23026911E-09, ]
- [ -3.14637908E-09,   4.68504993E-09,  -7.11122396E-10, ]
- [  3.36194829E-09,  -3.11146476E-09,  -1.98475623E-09, ]
- [  2.77163813E-09,   3.73015569E-09,   1.74729303E-09, ]
- [  5.47626883E-09,   2.81640843E-09,  -5.76485000E-09, ]
- [ -6.13374384E-09,  -4.63232425E-09,  -6.75877679E-09, ]
- [ -5.69890496E-09,  -8.82569536E-10,   3.83752579E-10, ]
- [ -4.39479053E-09,  -1.93766697E-09,  -6.32066220E-10, ]
- [  3.85742857E-09,  -4.61514060E-09,  -4.82890076E-09, ]
- [ -3.86181456E-10,   7.74614511E-09,   4.77151031E-09, ]
- [ -4.14693219E-09,   9.22725283E-10,   2.52984851E-09, ]
- [  3.74151639E-09,  -8.39547626E-09,   2.29357937E-09, ]
- [ -2.09221965E-09,  -2.51622383E-10,  -1.08432121E-09, ]
- [  2.69171648E-09,   7.48412605E-09,  -1.68573771E-09, ]
- [  3.60477843E-09,  -7.63079697E-10,   1.14479986E-09, ]
- [  4.08761317E-09,   5.60431101E-09,   1.77076475E-09, ]
- [ -1.79801743E-09,  -8.19373387E-11,  -2.74019772E-09, ]
- [  2.80045176E-09,   4.22922561E-09,   4.85627285E-10, ]
- [ -6.48278903E-09,  -6.23457544E-10,   4.39252570E-09, ]
- [  9.19543938E-10,  -1.65808396E-09,   7.14331462E-10, ]
- [ -1.06357090E-09,  -6.97436318E-09,   2.94313722E-09, ]
force_length_stats: {min:   9.73475912E-10, max:   1.02353459E-08, mean:   5.55403694E-09, }
...

 Integrated electronic density in atomic spheres:
 ------------------------------------------------
 Atom  Sphere_radius  Integrated_density
    1        2.51647          7.87572169
    2        2.51647          7.85694812
    3        2.51647          7.87468402
    4        2.51647          7.85081100
    5        2.20000         11.35353986
    6        2.20000         11.47765580
    7        2.20000         11.34828999
    8        2.20000         11.47551409
    9        1.41465          4.53627427
   10        1.41465          4.56209241
   11        1.41465          4.55715051
   12        1.41465          4.56417417
   13        1.41465          4.53638559
   14        1.41465          4.56864175
   15        1.41465          4.53653195
   16        1.41465          4.56243200
   17        1.41465          4.55077001
   18        1.41465          4.56662523
   19        1.41465          4.57102228
   20        1.41465          4.55636854
   21        1.41465          4.55406059
   22        1.41465          4.53124033
   23        1.41465          4.53531777
   24        1.41465          4.55962819
   25        1.41465          4.55513696
   26        1.41465          4.55319332
 
 PAW TEST:
 ==== Compensation charge inside spheres ============
 The following values must be close to each other ...
 Compensation charge over spherical meshes =     21.034784218967488
 Compensation charge over fft grid         =     21.034671323689686
 
 ==== Results concerning PAW augmentation regions ====
 
 Total pseudopotential strength Dij (hartree):
 Atom #  1
   0.47540  -0.11771   0.00033   0.00001   0.00029   0.00004   0.00001   0.00002  -0.00003  -0.00001  -0.00000   0.00001 ...
  -0.11771   0.02320  -0.00006  -0.00000  -0.00006   0.00002  -0.00000   0.00002   0.00000   0.00001  -0.00000   0.00000 ...
   0.00033  -0.00006  -0.18011  -0.00003  -0.00003   0.04319   0.00009  -0.00005   0.00007  -0.00000  -0.00004   0.00001 ...
   0.00001  -0.00000  -0.00003  -0.18012  -0.00002   0.00009   0.04312   0.00016   0.00001   0.00010   0.00001   0.00009 ...
   0.00029  -0.00006  -0.00003  -0.00002  -0.18015  -0.00005   0.00016   0.04317   0.00007   0.00001  -0.00005  -0.00002 ...
   0.00004   0.00002   0.04319   0.00009  -0.00005   0.32003   0.00002  -0.00002   0.00002   0.00001  -0.00002   0.00001 ...
   0.00001  -0.00000   0.00009   0.04312   0.00016   0.00002   0.32000   0.00003   0.00001   0.00005   0.00002   0.00008 ...
   0.00002   0.00002  -0.00005   0.00016   0.04317  -0.00002   0.00003   0.32001   0.00004   0.00001   0.00002  -0.00002 ...
  -0.00003   0.00000   0.00007   0.00001   0.00007   0.00002   0.00001   0.00004  -0.05752   0.00001   0.00001   0.00000 ...
  -0.00001   0.00001  -0.00000   0.00010   0.00001   0.00001   0.00005   0.00001   0.00001  -0.05752   0.00001  -0.00001 ...
  -0.00000  -0.00000  -0.00004   0.00001  -0.00005  -0.00002   0.00002   0.00002   0.00001   0.00001  -0.05752   0.00001 ...
   0.00001   0.00000   0.00001   0.00009  -0.00002   0.00001   0.00008  -0.00002   0.00000  -0.00001   0.00001  -0.05753 ...
   ...  only 12  components have been written...
 Atom # 26
   0.61727  -1.77061  -0.00022   0.00040   0.00033   0.00159  -0.00283  -0.00245
  -1.77061   5.13735   0.00057  -0.00101  -0.00087  -0.00420   0.00745   0.00657
  -0.00022   0.00057  -0.31106   0.00072   0.00009   0.97312  -0.00374  -0.00047
   0.00040  -0.00101   0.00072  -0.31143  -0.00009  -0.00374   0.97500   0.00044
   0.00033  -0.00087   0.00009  -0.00009  -0.31076  -0.00047   0.00044   0.97156
   0.00159  -0.00420   0.97312  -0.00374  -0.00047  -0.30002   0.01870   0.00238
  -0.00283   0.00745  -0.00374   0.97500   0.00044   0.01870  -0.30939  -0.00221
  -0.00245   0.00657  -0.00047   0.00044   0.97156   0.00238  -0.00221  -0.29218
 
 
 Augmentation waves occupancies Rhoij:
 Atom #  1
   2.02504  -0.08053  -0.00379  -0.00049  -0.00387   0.00181   0.00005   0.00199  -0.00073   0.00669  -0.00227   0.01171 ...
  -0.08053   0.25390   0.01547   0.00092   0.01600  -0.00428   0.00003  -0.00379  -0.00182  -0.01229   0.00765  -0.02094 ...
  -0.00379   0.01547   2.04776  -0.00497   0.00017  -0.02227   0.00288  -0.00027   0.00738   0.00280  -0.00724  -0.00845 ...
  -0.00049   0.00092  -0.00497   2.04514  -0.00942   0.00288  -0.02180   0.00538  -0.00524   0.00315  -0.00527   0.04896 ...
  -0.00387   0.01600   0.00017  -0.00942   2.05146  -0.00027   0.00537  -0.02401   0.02028  -0.00160   0.02569  -0.00023 ...
   0.00181  -0.00428  -0.02227   0.00288  -0.00027   0.01539  -0.00113  -0.00017  -0.00182  -0.00071   0.00171   0.00315 ...
   0.00005   0.00003   0.00288  -0.02180   0.00537  -0.00113   0.01533  -0.00233   0.00196   0.00013   0.00253  -0.01448 ...
   0.00199  -0.00379  -0.00027   0.00538  -0.02401  -0.00017  -0.00233   0.01588  -0.00546   0.00063  -0.00859  -0.00038 ...
  -0.00073  -0.00182   0.00738  -0.00524   0.02028  -0.00182   0.00196  -0.00546   0.11253  -0.02687   0.00557   0.01428 ...
   0.00669  -0.01229   0.00280   0.00315  -0.00160  -0.00071   0.00013   0.00063  -0.02687   0.07569  -0.01047   0.00668 ...
  -0.00227   0.00765  -0.00724  -0.00527   0.02569   0.00171   0.00253  -0.00859   0.00557  -0.01047   0.14562  -0.00406 ...
   0.01171  -0.02094  -0.00845   0.04896  -0.00023   0.00315  -0.01448  -0.00038   0.01428   0.00668  -0.00406   0.08375 ...
   ...  only 12  components have been written...
 Atom # 26
   1.99293   0.03091   0.00574  -0.01270   0.00299   0.00137  -0.00273  -0.00152
   0.03091   0.00117   0.00303  -0.00565  -0.00484   0.00014  -0.00025  -0.00016
   0.00574   0.00303   1.74168  -0.03315   0.00045   0.03050  -0.00676  -0.00043
  -0.01270  -0.00565  -0.03315   1.76370  -0.00175  -0.00676   0.03410  -0.00016
   0.00299  -0.00484   0.00045  -0.00175   1.73981  -0.00044  -0.00015   0.02919
   0.00137   0.00014   0.03050  -0.00676  -0.00044   0.00075  -0.00033  -0.00003
  -0.00273  -0.00025  -0.00676   0.03410  -0.00015  -0.00033   0.00092   0.00002
  -0.00152  -0.00016  -0.00043  -0.00016   0.02919  -0.00003   0.00002   0.00063
 
 
================================================================================
 
 ----iterations are completed or convergence reached----
 
 Mean square residual over all n,k,spin=   40.673E-29; max=  27.152E-28
 reduced coordinates (array xred) for   26 atoms
       0.818186048810      0.867590462970      0.869206299680
       0.395736056660      0.623648715100      0.165619025120
       0.181672672890      0.368326317880      0.630165477870
       0.604203196570      0.123739549220      0.334103193420
       0.189420942660      0.161517436290      0.120668472600
       0.703373341630      0.330878072040      0.793805569940
       0.810344146240      0.661613102110      0.379473195240
       0.296810213930      0.831325925030      0.706063017060
       0.304697262210      0.319460286590      0.307108354330
       0.901977506440      0.183941510710      0.712183492160
       0.695709649550      0.819396245720      0.192752529170
       0.098684126618      0.683994256360      0.787669480890
       0.962857433820      0.164447301500      0.232205857170
       0.528583649990      0.311020222750      0.641532724260
       0.037160419643      0.663654377580      0.268585193210
       0.471496299160      0.810790346550      0.858459446560
       0.338590250870      0.973454761630      0.199383842310
       0.303466262460      0.043569366841      0.571402419470
       0.696311983120      0.543004060250      0.928810299430
       0.661514623980      0.473523993740      0.300700540250
       0.251741361290      0.368465872200      0.964127931660
       0.747757592140      0.868881773240      0.536054579930
       0.363286010530      0.666470412520      0.516950074230
       0.636852323690      0.165739494280     -0.017589490179
       0.143718223600      0.010487069323     -0.085864610941
       0.855848401530      0.511059067610      0.586423085160
 rms dE/dt=  1.2771E-04; max dE/dt=  1.1848E-04; dE/dt below (all hartree)
    1       0.000033033166      0.000118384518     -0.000183900022
    2       0.000032986045      0.000118347714     -0.000183910172
    3       0.000033027543      0.000118411561     -0.000183931650
    4       0.000033081792      0.000118350659     -0.000183905004
    5       0.000033045999      0.000118378085     -0.000183904691
    6       0.000033119164      0.000118388565     -0.000183950095
    7       0.000033097540      0.000118307366     -0.000183897996
    8       0.000033009319      0.000118410864     -0.000183885446
    9       0.000033014703      0.000118320024     -0.000183935527
   10       0.000032983028      0.000118332125     -0.000183835770
   11       0.000033142842      0.000118431094     -0.000183814006
   12       0.000033131754      0.000118381316     -0.000183911004
   13       0.000033114619      0.000118395318     -0.000183898191
   14       0.000033004573      0.000118430822     -0.000183847302
   15       0.000033055784      0.000118266718     -0.000183974192
   16       0.000033108946      0.000118357341     -0.000183941166
   17       0.000033001082      0.000118481041     -0.000183943655
   18       0.000033083387      0.000118372916     -0.000183893715
   19       0.000033018237      0.000118270165     -0.000183888982
   20       0.000033003741      0.000118379686     -0.000183927982
   21       0.000032996648      0.000118295130     -0.000183936784
   22       0.000033080541      0.000118370657     -0.000183871508
   23       0.000033015209      0.000118313393     -0.000183918466
   24       0.000033139624      0.000118377890     -0.000183964713
   25       0.000033040843      0.000118391583     -0.000183920230
   26       0.000033066444      0.000118462195     -0.000183948998
 
 cartesian coordinates (angstrom) at end:
    1      6.26423488859608     6.09736422493319     6.53576137861347
    2      2.93364730385449     4.38320278314015     1.33552580685640
    3      1.55736385079858     2.58773980016714     4.58287076876365
    4      4.50773261127391     0.87052708998394     2.62221248016517
    5      1.41956382659772     1.13529177907667     0.93599820384702
    6      5.40180268779931     2.32563976457371     5.95284368388219
    7      6.02090961311941     4.65068881253857     3.02457397867478
    8      2.42214805347141     5.84147398751359     5.16957299582575
    9      2.32652987471369     2.24517339995220     2.31511422208729
   10      6.81034133921222     1.29372505352515     5.44351561992039
   11      5.11931141778550     5.75946109157677     1.64325126277161
   12      1.01630426977190     4.80552487316017     5.67937868700827
   13      7.06944841815428     1.15765106948657     2.02798584779160
   14      4.07668696790864     2.18589719190752     4.79577289167136
   15      0.37311707936002     4.66326204709216     1.93732741510105
   16      3.74645447601238     5.69736569338848     6.32754598069738
   17      2.53306078044328     6.84114258156658     1.55529231085298
   18      2.41723065159778     0.30602603126561     4.20846346910420
   19      5.40241507750747     3.81604758632780     6.91706404199519
   20      4.91147692332670     3.32870984499512     2.40413230305319
   21      2.19216658378000     2.58836719736047     7.00195259941184
   22      5.62713531079847     6.10678952652665     4.12234949648307
   23      2.83187915431914     4.68347801526350     3.84015183406840
   24      4.61102743318899     1.16630677899484     0.11495333439879
   25      1.00940606554524     0.07419223685290    -0.56072761588350
   26      6.42900236353888     3.59251035372030     4.52462926012397
 
 cartesian forces (hartree/bohr) at end:
    1      0.00000000155948    -0.00000000112662    -0.00000000081213
    2      0.00000000496804     0.00000000164375    -0.00000000024243
    3      0.00000000184934    -0.00000000316274     0.00000000150821
    4     -0.00000000201975     0.00000000142461    -0.00000000025391
    5      0.00000000060196    -0.00000000064177    -0.00000000041645
    6     -0.00000000492845    -0.00000000142820     0.00000000323027
    7     -0.00000000314638     0.00000000468505    -0.00000000071112
    8      0.00000000336195    -0.00000000311146    -0.00000000198476
    9      0.00000000277164     0.00000000373016     0.00000000174729
   10      0.00000000547627     0.00000000281641    -0.00000000576485
   11     -0.00000000613374    -0.00000000463232    -0.00000000675878
   12     -0.00000000569890    -0.00000000088257     0.00000000038375
   13     -0.00000000439479    -0.00000000193767    -0.00000000063207
   14      0.00000000385743    -0.00000000461514    -0.00000000482890
   15     -0.00000000038618     0.00000000774615     0.00000000477151
   16     -0.00000000414693     0.00000000092273     0.00000000252985
   17      0.00000000374152    -0.00000000839548     0.00000000229358
   18     -0.00000000209222    -0.00000000025162    -0.00000000108432
   19      0.00000000269172     0.00000000748413    -0.00000000168574
   20      0.00000000360478    -0.00000000076308     0.00000000114480
   21      0.00000000408761     0.00000000560431     0.00000000177076
   22     -0.00000000179802    -0.00000000008194    -0.00000000274020
   23      0.00000000280045     0.00000000422923     0.00000000048563
   24     -0.00000000648279    -0.00000000062346     0.00000000439253
   25      0.00000000091954    -0.00000000165808     0.00000000071433
   26     -0.00000000106357    -0.00000000697436     0.00000000294314
 frms,max,avg= 3.5110250E-09 8.3954763E-09  -3.128E-06 -8.910E-06  1.375E-05 h/b
 
 cartesian forces (eV/Angstrom) at end:
    1      0.00000008019164    -0.00000005793287    -0.00000004176154
    2      0.00000025546683     0.00000008452488    -0.00000001246648
    3      0.00000009509687    -0.00000016263436     0.00000007755530
    4     -0.00000010385969     0.00000007325624    -0.00000001305639
    5      0.00000003095427    -0.00000003300101    -0.00000002141457
    6     -0.00000025343099    -0.00000007344086     0.00000016610710
    7     -0.00000016179330     0.00000024091493    -0.00000003656738
    8      0.00000017287832    -0.00000015999794    -0.00000010206026
    9      0.00000014252335     0.00000019181230     0.00000008984941
   10      0.00000028160104     0.00000014482553    -0.00000029644048
   11     -0.00000031540976    -0.00000023820367    -0.00000034755025
   12     -0.00000029304945    -0.00000004538355     0.00000001973335
   13     -0.00000022598920    -0.00000009963883    -0.00000003250215
   14      0.00000019835694    -0.00000023732005    -0.00000024831204
   15     -0.00000001985825     0.00000039832276     0.00000024536090
   16     -0.00000021324381     0.00000004744844     0.00000013009003
   17      0.00000019239649    -0.00000043171271     0.00000011794058
   18     -0.00000010758625    -0.00000001293894    -0.00000005575803
   19      0.00000013841362     0.00000038484920    -0.00000008668411
   20      0.00000018536514    -0.00000003923913     0.00000005886797
   21      0.00000021019350     0.00000028818523     0.00000009105638
   22     -0.00000009245777    -0.00000000421339    -0.00000014090662
   23      0.00000014400501     0.00000021747551     0.00000002497196
   24     -0.00000033335839    -0.00000003205947     0.00000022587273
   25      0.00000004728485    -0.00000008526210     0.00000003673240
   26     -0.00000005469101    -0.00000035863614     0.00000015134219
 frms,max,avg= 1.8054415E-07 4.3171271E-07  -1.608E-04 -4.582E-04  7.070E-04 e/A
 length scales=  1.000000000000  1.000000000000  1.000000000000 bohr
              =  0.529177208590  0.529177208590  0.529177208590 angstroms
 Fermi (or HOMO) energy (hartree) =   0.11707   Average Vxc (hartree)=  -0.38707
 Eigenvalues (hartree) for nkpt=   4  k points:
 kpt#   1, nband=104, wtk=  0.25000, kpt=  0.2500  0.2500  0.2500 (reduced coord)
  -2.13490   -2.13477   -2.12768   -2.12758   -1.19390   -1.19380   -1.19245   -1.19235
  -1.18646   -1.18636   -1.18523   -1.18512   -1.17912   -1.17902   -1.17836   -1.17828
  -0.98323   -0.98262   -0.97846   -0.97746   -0.53020   -0.52640   -0.51648   -0.51237
  -0.50638   -0.50202   -0.49905   -0.49737   -0.49407   -0.48970   -0.48482   -0.48194
  -0.47876   -0.47679   -0.47473   -0.47057   -0.46839   -0.46501   -0.38263   -0.38163
  -0.37888   -0.37601   -0.37113   -0.37016   -0.36559   -0.36128   -0.35811   -0.35531
  -0.34904   -0.34026   -0.06680   -0.06258   -0.06050   -0.05700   -0.05253   -0.04799
  -0.04511   -0.04264   -0.04024   -0.03574   -0.02992   -0.02749   -0.02542   -0.01982
  -0.01897   -0.01772   -0.01290   -0.01105   -0.01061   -0.00289    0.00262    0.00811
   0.01090    0.02215    0.02530    0.02740    0.02980    0.03454    0.03846    0.04112
   0.04767    0.04917    0.05300    0.05415    0.05725    0.06040    0.06195    0.06678
   0.06869    0.07350    0.07586    0.08026    0.08303    0.08664    0.08855    0.09144
   0.09277    0.09458    0.09704    0.09857    0.10221    0.10598    0.11213    0.11379
 prteigrs : prtvol=0 or 1, do not print more k-points.
 

--- !EnergyTerms
iteration_state     : {dtset: 1, }
comment             : Components of total free energy in Hartree
kinetic             :  2.14071888678110E+02
hartree             :  1.85950408190963E+02
xc                  : -9.12378733864551E+01
Ewald energy        : -5.04617000902078E+02
psp_core            :  3.65542922274787E+01
local_psp           : -5.79569008675155E+02
spherical_terms     :  4.44873886514885E+01
total_energy        : -6.94359905215648E+02
total_energy_eV     : -1.88944939178162E+04
...


--- !EnergyTermsDC
iteration_state     : {dtset: 1, }
comment             : '"Double-counting" decomposition of free energy'
band_energy         : -7.69475154199450E+01
Ewald energy        : -5.04617000902078E+02
psp_core            :  3.65542922274787E+01
xc_dc               : -1.58076378472169E+02
spherical_terms     :  8.72669735106783E+00
total_energy_dc     : -6.94359905215645E+02
total_energy_dc_eV  : -1.88944939178161E+04
...

 
 Cartesian components of stress tensor (hartree/bohr^3)
  sigma(1 1)=  3.39892934E-05  sigma(3 2)= -3.50799501E-12
  sigma(2 2)=  1.55493222E-11  sigma(3 1)= -1.21919661E-11
  sigma(3 3)= -6.49876160E-12  sigma(2 1)=  4.78931475E-13
 
-Cartesian components of stress tensor (GPa)         [Pressure= -3.3333E-01 GPa]
- sigma(1 1)=  9.99999369E-01  sigma(3 2)= -1.03208759E-07
- sigma(2 2)=  4.57476778E-07  sigma(3 1)= -3.58699968E-07
- sigma(3 3)= -1.91200135E-07  sigma(2 1)=  1.40906481E-08
 
== END DATASET(S) ==============================================================
================================================================================
  
 -outvars: echo values of variables after computation  --------
-          iomode           1
            acell      1.0000000000E+00  1.0000000000E+00  1.0000000000E+00 Bohr
              amu      1.38905500E+02  9.59400000E+01  1.59994000E+01
        autoparal           1
           bandpp          26
     densfor_pred           6
           diemac      4.00000000E+00
             ecut      3.00000000E+01 Hartree
           ecutsm      5.00000000E-01 Hartree
           etotal1    -6.9435990522E+02
            fcart1     1.5594792524E-09 -1.1266150962E-09 -8.1213264940E-10
                       4.9680393733E-09  1.6437473573E-09 -2.4243451440E-10
                       1.8493398907E-09 -3.1627350011E-09  1.5082104976E-09
                      -2.0197495735E-09  1.4246072312E-09 -2.5390636083E-10
                       6.0196472716E-10 -6.4176757773E-10 -4.1644710963E-10
                      -4.9284485877E-09 -1.4281975481E-09  3.2302691143E-09
                      -3.1463790844E-09  4.6850499262E-09 -7.1112239616E-10
                       3.3619482882E-09 -3.1114647600E-09 -1.9847562346E-09
                       2.7716381261E-09  3.7301556883E-09  1.7472930259E-09
                       5.4762688287E-09  2.8164084329E-09 -5.7648500025E-09
                      -6.1337438355E-09 -4.6323242497E-09 -6.7587767899E-09
                      -5.6989049560E-09 -8.8256953636E-10  3.8375257950E-10
                      -4.3947905309E-09 -1.9376669656E-09 -6.3206622013E-10
                       3.8574285721E-09 -4.6151406012E-09 -4.8289007626E-09
                      -3.8618145603E-10  7.7461451074E-09  4.7715103137E-09
                      -4.1469321934E-09  9.2272528326E-10  2.5298485053E-09
                       3.7415163894E-09 -8.3954762587E-09  2.2935793671E-09
                      -2.0922196515E-09 -2.5162238333E-10 -1.0843212081E-09
                       2.6917164821E-09  7.4841260545E-09 -1.6857377077E-09
                       3.6047784284E-09 -7.6307969691E-10  1.1447998625E-09
                       4.0876131732E-09  5.6043110114E-09  1.7707647515E-09
                      -1.7980174284E-09 -8.1937338684E-11 -2.7401977211E-09
                       2.8004517639E-09  4.2292256086E-09  4.8562728462E-10
                      -6.4827890323E-09 -6.2345754351E-10  4.3925256963E-09
                       9.1954393786E-10 -1.6580839617E-09  7.1433146171E-10
                      -1.0635709037E-09 -6.9743631823E-09  2.9431372173E-09
-          fftalg         401
             iscf           7
              ixc     -116133
           jdtset        1
              kpt      2.50000000E-01  2.50000000E-01  2.50000000E-01
                      -2.50000000E-01  2.50000000E-01  2.50000000E-01
                       2.50000000E-01 -2.50000000E-01  2.50000000E-01
                      -2.50000000E-01 -2.50000000E-01  2.50000000E-01
         kptrlatt        2    0    0      0    2    0      0    0    2
          kptrlen      2.65587554E+01
P           mkmem           1
            natom          26
            nband         104
           ndtset           1
            ngfft          72      75      75
          ngfftdg          72      75      75
             nkpt           4
-           npfft          15
-           npkpt           4
            nstep         100
             nsym           1
           ntypat           3
              occ      2.000000  2.000000  2.000000  2.000000  2.000000  2.000000
                       2.000000  2.000000  2.000000  2.000000  2.000000  2.000000
                       2.000000  2.000000  2.000000  2.000000  2.000000  2.000000
                       2.000000  2.000000  2.000000  2.000000  2.000000  2.000000
                       2.000000  2.000000  2.000000  2.000000  2.000000  2.000000
                       2.000000  2.000000  2.000000  2.000000  2.000000  2.000000
                       2.000000  2.000000  2.000000  2.000000  2.000000  2.000000
                       2.000000  2.000000  2.000000  2.000000  2.000000  2.000000
                       2.000000  2.000000  2.000000  2.000000  2.000000  2.000000
                       2.000000  2.000000  2.000000  2.000000  2.000000  2.000000
                       2.000000  2.000000  2.000000  2.000000  2.000000  2.000000
                       2.000000  2.000000  2.000000  2.000000  2.000000  2.000000
                       2.000000  2.000000  2.000000  2.000000  2.000000  2.000000
                       2.000000  2.000000  2.000000  2.000000  2.000000  2.000000
                       2.000000  2.000000  2.000000  2.000000  2.000000  2.000000
                       2.000000  2.000000  2.000000  2.000000  2.000000  2.000000
                       2.000000  2.000000  2.000000  2.000000  2.000000  2.000000
                       2.000000  2.000000
        paral_kgb           1
        pawecutdg      3.00000000E+01 Hartree
         pawmixdg           1
         pawxcdev           0
           prteig           0
            rprim      1.3700796787E+01  4.7585969917E-03  7.1570008543E-01
                       4.9148298188E-03  1.3279376547E+01 -2.6228094450E-03
                       7.1746318855E-01 -2.9973852765E-03  1.3538211561E+01
           shiftk      5.00000000E-01  5.00000000E-01  5.00000000E-01
          spgroup           1
           strten1     3.3989293421E-05  1.5549322246E-11 -6.4987615983E-12
                      -3.5079950080E-12 -1.2191966146E-11  4.7893147471E-13
           tolvrs      1.00000000E-20
            typat      1  1  1  1  2  2  2  2  3  3  3  3  3  3  3  3  3  3  3  3
                       3  3  3  3  3  3
           useylm           1
         wfoptalg         114
              wtk        0.25000    0.25000    0.25000    0.25000
           xangst      6.2642348886E+00  6.0973642249E+00  6.5357613786E+00
                       2.9336473039E+00  4.3832027831E+00  1.3355258069E+00
                       1.5573638508E+00  2.5877398002E+00  4.5828707688E+00
                       4.5077326113E+00  8.7052708998E-01  2.6222124802E+00
                       1.4195638266E+00  1.1352917791E+00  9.3599820385E-01
                       5.4018026878E+00  2.3256397646E+00  5.9528436839E+00
                       6.0209096131E+00  4.6506888125E+00  3.0245739787E+00
                       2.4221480535E+00  5.8414739875E+00  5.1695729958E+00
                       2.3265298747E+00  2.2451734000E+00  2.3151142221E+00
                       6.8103413392E+00  1.2937250535E+00  5.4435156199E+00
                       5.1193114178E+00  5.7594610916E+00  1.6432512628E+00
                       1.0163042698E+00  4.8055248732E+00  5.6793786870E+00
                       7.0694484182E+00  1.1576510695E+00  2.0279858478E+00
                       4.0766869679E+00  2.1858971919E+00  4.7957728917E+00
                       3.7311707936E-01  4.6632620471E+00  1.9373274151E+00
                       3.7464544760E+00  5.6973656934E+00  6.3275459807E+00
                       2.5330607804E+00  6.8411425816E+00  1.5552923109E+00
                       2.4172306516E+00  3.0602603127E-01  4.2084634691E+00
                       5.4024150775E+00  3.8160475863E+00  6.9170640420E+00
                       4.9114769233E+00  3.3287098450E+00  2.4041323031E+00
                       2.1921665838E+00  2.5883671974E+00  7.0019525994E+00
                       5.6271353108E+00  6.1067895265E+00  4.1223494965E+00
                       2.8318791543E+00  4.6834780153E+00  3.8401518341E+00
                       4.6110274332E+00  1.1663067790E+00  1.1495333440E-01
                       1.0094060655E+00  7.4192236853E-02 -5.6072761588E-01
                       6.4290023635E+00  3.5925103537E+00  4.5246292601E+00
            xcart      1.1837688372E+01  1.1522348518E+01  1.2350799075E+01
                       5.5437899748E+00  8.2830528450E+00  2.5237780184E+00
                       2.9429911673E+00  4.8901195255E+00  8.6603706554E+00
                       8.5183801156E+00  1.6450577913E+00  4.9552634497E+00
                       2.6825868604E+00  2.1453905434E+00  1.7687802661E+00
                       1.0207927704E+01  4.3948222388E+00  1.1249244274E+01
                       1.1377870240E+01  8.7885281850E+00  5.7156164883E+00
                       4.5771964744E+00  1.1038786049E+01  9.7690771861E+00
                       4.3965043032E+00  4.2427628467E+00  4.3749318461E+00
                       1.2869680003E+01  2.4447860424E+00  1.0286753722E+01
                       9.6740965686E+00  1.0883804136E+01  3.1052948542E+00
                       1.9205367376E+00  9.0811259350E+00  1.0732470323E+01
                       1.3359321421E+01  2.1876434788E+00  3.8323378537E+00
                       7.7038218989E+00  4.1307470473E+00  9.0626973608E+00
                       7.0508909549E-01  8.8122881549E+00  3.6610182443E+00
                       7.0797729290E+00  1.0766460839E+01  1.1957328997E+01
                       4.7867911530E+00  1.2927885915E+01  2.9390765241E+00
                       4.5679039315E+00  5.7830538863E-01  7.9528433969E+00
                       1.0209084953E+01  7.2112848482E+00  1.3071356683E+01
                       9.2813462931E+00  6.2903499829E+00  4.5431516400E+00
                       4.1425944810E+00  4.8913051344E+00  1.3231772808E+01
                       1.0633744650E+01  1.1540159756E+01  7.7901115724E+00
                       5.3514760431E+00  8.8504907982E+00  7.2568352751E+00
                       8.7135790399E+00  2.2040003992E+00  2.1723032008E-01
                       1.9075010208E+00  1.4020300884E-01 -1.0596216292E+00
                       1.2149053775E+01  6.7888606981E+00  8.5503101545E+00
             xred      8.1818604881E-01  8.6759046297E-01  8.6920629968E-01
                       3.9573605666E-01  6.2364871510E-01  1.6561902512E-01
                       1.8167267289E-01  3.6832631788E-01  6.3016547787E-01
                       6.0420319657E-01  1.2373954922E-01  3.3410319342E-01
                       1.8942094266E-01  1.6151743629E-01  1.2066847260E-01
                       7.0337334163E-01  3.3087807204E-01  7.9380556994E-01
                       8.1034414624E-01  6.6161310211E-01  3.7947319524E-01
                       2.9681021393E-01  8.3132592503E-01  7.0606301706E-01
                       3.0469726221E-01  3.1946028659E-01  3.0710835433E-01
                       9.0197750644E-01  1.8394151071E-01  7.1218349216E-01
                       6.9570964955E-01  8.1939624572E-01  1.9275252917E-01
                       9.8684126618E-02  6.8399425636E-01  7.8766948089E-01
                       9.6285743382E-01  1.6444730150E-01  2.3220585717E-01
                       5.2858364999E-01  3.1102022275E-01  6.4153272426E-01
                       3.7160419643E-02  6.6365437758E-01  2.6858519321E-01
                       4.7149629916E-01  8.1079034655E-01  8.5845944656E-01
                       3.3859025087E-01  9.7345476163E-01  1.9938384231E-01
                       3.0346626246E-01  4.3569366841E-02  5.7140241947E-01
                       6.9631198312E-01  5.4300406025E-01  9.2881029943E-01
                       6.6151462398E-01  4.7352399374E-01  3.0070054025E-01
                       2.5174136129E-01  3.6846587220E-01  9.6412793166E-01
                       7.4775759214E-01  8.6888177324E-01  5.3605457993E-01
                       3.6328601053E-01  6.6647041252E-01  5.1695007423E-01
                       6.3685232369E-01  1.6573949428E-01 -1.7589490179E-02
                       1.4371822360E-01  1.0487069323E-02 -8.5864610941E-02
                       8.5584840153E-01  5.1105906761E-01  5.8642308516E-01
            znucl       57.00000   42.00000    8.00000
 
================================================================================


- Timing analysis has been suppressed with timopt=0



================================================================================

 Suggested references for the acknowledgment of ABINIT usage.

 The users of ABINIT have little formal obligations with respect to the ABINIT group
 (those specified in the GNU General Public License, http://www.gnu.org/copyleft/gpl.txt).
 However, it is common practice in the scientific literature,
 to acknowledge the efforts of people that have made the research possible.
 In this spirit, please find below suggested citations of work written by ABINIT developers,
 corresponding to implementations inside of ABINIT that you have used in the present run.
 Note also that it will be of great value to readers of publications presenting these results,
 to read papers enabling them to understand the theoretical formalism and details
 of the ABINIT implementation.
 For information on why they are suggested, see also https://docs.abinit.org/theory/acknowledgments.
-
- [1] Implementation of the Projector Augmented-Wave Method in the ABINIT code.
- M. Torrent, F. Jollet, F. Bottin, G. Zerah, and X. Gonze Comput. Mat. Science 42, 337, (2008).
- Comment: PAW calculations. Strong suggestion to cite this paper.
- DOI and bibtex: see https://docs.abinit.org/theory/bibliography/#torrent2008
-
- [2] Libxc: A library of exchange and correlation functionals for density functional theory.
- M.A.L. Marques, M.J.T. Oliveira, T. Burnus, Computer Physics Communications 183, 2227 (2012).
- Comment: to be cited when LibXC is used (negative value of ixc)
- Strong suggestion to cite this paper.
- DOI and bibtex: see https://docs.abinit.org/theory/bibliography/#marques2012
-
- [3] Large scale ab initio calculations based on three levels of parallelization
- F. Bottin, S. Leroux, A. Knyazev, G. Zerah, Comput. Mat. Science 42, 329, (2008).
- Comment: in case LOBPCG algorithm is used (wfoptalg=4/14/114).
- Strong suggestion to cite this paper in your publications.
- This paper is also available at http://www.arxiv.org/abs/0707.3405
- DOI and bibtex: see https://docs.abinit.org/theory/bibliography/#bottin2008
-
- [4] The Abinit project: Impact, environment and recent developments.
- Computer Phys. Comm. 248, 107042 (2020).
- X.Gonze, B. Amadon, G. Antonius, F.Arnardi, L.Baguet, J.-M.Beuken,
- J.Bieder, F.Bottin, J.Bouchet, E.Bousquet, N.Brouwer, F.Bruneval,
- G.Brunin, T.Cavignac, J.-B. Charraud, Wei Chen, M.Cote, S.Cottenier,
- J.Denier, G.Geneste, Ph.Ghosez, M.Giantomassi, Y.Gillet, O.Gingras,
- D.R.Hamann, G.Hautier, Xu He, N.Helbig, N.Holzwarth, Y.Jia, F.Jollet,
- W.Lafargue-Dit-Hauret, K.Lejaeghere, M.A.L.Marques, A.Martin, C.Martins,
- H.P.C. Miranda, F.Naccarato, K. Persson, G.Petretto, V.Planes, Y.Pouillon,
- S.Prokhorenko, F.Ricci, G.-M.Rignanese, A.H.Romero, M.M.Schmitt, M.Torrent,
- M.J.van Setten, B.Van Troeye, M.J.Verstraete, G.Zerah and J.W.Zwanzig
- Comment: the fifth generic paper describing the ABINIT project.
- Note that a version of this paper, that is not formatted for Computer Phys. Comm. 
- is available at https://www.abinit.org/sites/default/files/ABINIT20.pdf .
- The licence allows the authors to put it on the Web.
- DOI and bibtex: see https://docs.abinit.org/theory/bibliography/#gonze2020
-
- [5] ABINIT: Overview, and focus on selected capabilities
- J. Chem. Phys. 152, 124102 (2020).
- A. Romero, D.C. Allan, B. Amadon, G. Antonius, T. Applencourt, L.Baguet,
- J.Bieder, F.Bottin, J.Bouchet, E.Bousquet, F.Bruneval,
- G.Brunin, D.Caliste, M.Cote,
- J.Denier, C. Dreyer, Ph.Ghosez, M.Giantomassi, Y.Gillet, O.Gingras,
- D.R.Hamann, G.Hautier, F.Jollet, G. Jomard,
- A.Martin, 
- H.P.C. Miranda, F.Naccarato, G.Petretto, N.A. Pike, V.Planes,
- S.Prokhorenko, T. Rangel, F.Ricci, G.-M.Rignanese, M.Royo, M.Stengel, M.Torrent,
- M.J.van Setten, B.Van Troeye, M.J.Verstraete, J.Wiktor, J.W.Zwanziger, and X.Gonze.
- Comment: a global overview of ABINIT, with focus on selected capabilities .
- Note that a version of this paper, that is not formatted for J. Chem. Phys 
- is available at https://www.abinit.org/sites/default/files/ABINIT20_JPC.pdf .
- The licence allows the authors to put it on the Web.
- DOI and bibtex: see https://docs.abinit.org/theory/bibliography/#romero2020
-
- [6] Recent developments in the ABINIT software package.
- Computer Phys. Comm. 205, 106 (2016).
- X.Gonze, F.Jollet, F.Abreu Araujo, D.Adams, B.Amadon, T.Applencourt,
- C.Audouze, J.-M.Beuken, J.Bieder, A.Bokhanchuk, E.Bousquet, F.Bruneval
- D.Caliste, M.Cote, F.Dahm, F.Da Pieve, M.Delaveau, M.Di Gennaro,
- B.Dorado, C.Espejo, G.Geneste, L.Genovese, A.Gerossier, M.Giantomassi,
- Y.Gillet, D.R.Hamann, L.He, G.Jomard, J.Laflamme Janssen, S.Le Roux,
- A.Levitt, A.Lherbier, F.Liu, I.Lukacevic, A.Martin, C.Martins,
- M.J.T.Oliveira, S.Ponce, Y.Pouillon, T.Rangel, G.-M.Rignanese,
- A.H.Romero, B.Rousseau, O.Rubel, A.A.Shukri, M.Stankovski, M.Torrent,
- M.J.Van Setten, B.Van Troeye, M.J.Verstraete, D.Waroquier, J.Wiktor,
- B.Xu, A.Zhou, J.W.Zwanziger.
- Comment: the fourth generic paper describing the ABINIT project.
- Note that a version of this paper, that is not formatted for Computer Phys. Comm. 
- is available at https://www.abinit.org/sites/default/files/ABINIT16.pdf .
- The licence allows the authors to put it on the Web.
- DOI and bibtex: see https://docs.abinit.org/theory/bibliography/#gonze2016
-
- Proc.   0 individual time (sec): cpu=        314.1  wall=        320.1
 
================================================================================
 
 Calculation completed.
.Delivered   0 WARNINGs and   0 COMMENTs to log file.
+Overall time at end (sec) : cpu=      19074.2  wall=      19196.8
