
.Version 9.3.2 of ABINIT 
.(MPI version, prepared for a x86_64_linux_intel19.1 computer) 

.Copyright (C) 1998-2020 ABINIT group . 
 ABINIT comes with ABSOLUTELY NO WARRANTY.
 It is free software, and you are welcome to redistribute it
 under certain conditions (GNU General Public License,
 see ~abinit/COPYING or http://www.gnu.org/copyleft/gpl.txt).

 ABINIT is a project of the Universite Catholique de Louvain,
 Corning Inc. and other collaborators, see ~abinit/doc/developers/contributors.txt .
 Please read https://docs.abinit.org/theory/acknowledgments for suggested
 acknowledgments of the ABINIT effort.
 For more information, see https://www.abinit.org .

.Starting date : Thu  2 Dec 2021.
- ( at 12h42 )
  
- input  file    -> abi.in
- output file    -> abi.out
- root for input  files -> abi-i
- root for output files -> abi-o
 
- inpspheads : Reading pseudopotential header in XML form from 
-   ~/ABINIT_PAW_PBE/paw_pbe_standard/La.xml
- inpspheads : Reading pseudopotential header in XML form from 
-   ~/ABINIT_PAW_PBE/paw_pbe_standard/Mo.xml
- inpspheads : Reading pseudopotential header in XML form from 
-   ~/ABINIT_PAW_PBE/paw_pbe_standard/O.xml
 
 Symmetries : space group P2_1 (#  4); Bravais mP (primitive monocl.)
================================================================================
 Values of the parameters that define the memory need of the present run
     intxc =       0    ionmov =       0      iscf =       7    lmnmax =      32
     lnmax =       8     mgfft =      75  mpssoang =       4    mqgrid =    3334
     natom =      26  nloc_mem =       2    nspden =       1   nspinor =       1
    nsppol =       1      nsym =       2    n1xccc =       1    ntypat =       3
    occopt =       1   xclevel =       2
-    mband =         104        mffmem =           1         mkmem =           1
       mpw =        1937          nfft =       81000          nkpt =           2
Pmy_natom=         7
 PAW method is used; the additional fine FFT grid is defined by:
   mgfftf=        75    nfftf =     81000
================================================================================
P This job should need less than                      65.492 Mbytes of memory.
  Rough estimation (10% accuracy) of disk space for files :
_ WF disk file :     30.741 Mbytes ; DEN or POT disk file :      0.620 Mbytes.
================================================================================
 
--------------------------------------------------------------------------------
------------- Echo of variables that govern the present computation ------------
--------------------------------------------------------------------------------
-
- outvars: echo of selected default values                                      
-   iomode0 =  0 , fftalg0 =512 , wfoptalg0 = 10
-
- outvars: echo of global parameters not present in the input file              
-  max_nthreads =    1
-
 -outvars: echo values of preprocessed input variables --------
-          iomode           1
            acell      1.0000000000E+00  1.0000000000E+00  1.0000000000E+00 Bohr
              amu      1.38905500E+02  9.59400000E+01  1.59994000E+01
        autoparal           1
           bandpp          26
     densfor_pred           6
           diemac      4.00000000E+00
             ecut      3.00000000E+01 Hartree
           ecutsm      5.00000000E-01 Hartree
-          fftalg         401
             iscf           7
              ixc     -116133
              kpt      2.50000000E-01  2.50000000E-01  2.50000000E-01
                      -2.50000000E-01  2.50000000E-01  2.50000000E-01
         kptrlatt        2    0    0      0    2    0      0    0    2
          kptrlen      2.66221599E+01
P           mkmem           1
            natom          26
            nband         104
            ngfft          72      75      75
          ngfftdg          72      75      75
             nkpt           2
-          npband           2
-           npfft           5
-           npkpt           2
            nstep           1
             nsym           2
           ntypat           3
              occ      2.000000  2.000000  2.000000  2.000000  2.000000  2.000000
                       2.000000  2.000000  2.000000  2.000000  2.000000  2.000000
                       2.000000  2.000000  2.000000  2.000000  2.000000  2.000000
                       2.000000  2.000000  2.000000  2.000000  2.000000  2.000000
                       2.000000  2.000000  2.000000  2.000000  2.000000  2.000000
                       2.000000  2.000000  2.000000  2.000000  2.000000  2.000000
                       2.000000  2.000000  2.000000  2.000000  2.000000  2.000000
                       2.000000  2.000000  2.000000  2.000000  2.000000  2.000000
                       2.000000  2.000000  2.000000  2.000000  2.000000  2.000000
                       2.000000  2.000000  2.000000  2.000000  2.000000  2.000000
                       2.000000  2.000000  2.000000  2.000000  2.000000  2.000000
                       2.000000  2.000000  2.000000  2.000000  2.000000  2.000000
                       2.000000  2.000000  2.000000  2.000000  2.000000  2.000000
                       2.000000  2.000000  2.000000  2.000000  2.000000  2.000000
                       2.000000  2.000000  2.000000  2.000000  2.000000  2.000000
                       2.000000  2.000000  2.000000  2.000000  2.000000  2.000000
                       2.000000  2.000000  2.000000  2.000000  2.000000  2.000000
                       2.000000  2.000000
        paral_kgb           1
        pawecutdg      3.00000000E+01 Hartree
         pawmixdg           1
         pawxcdev           0
           prtcif           1
           prteig           0
            rprim      1.3574348142E+01  6.9341627046E-01  0.0000000000E+00
                       7.1555434730E-01  1.3569683756E+01  0.0000000000E+00
                       0.0000000000E+00  0.0000000000E+00  1.3311079941E+01
           shiftk      5.00000000E-01  5.00000000E-01  5.00000000E-01
          spgroup           4
           symrel      1  0  0   0  1  0   0  0  1      -1  0  0   0 -1  0   0  0  1
            tnons      0.0000000  0.0000000  0.0000000     0.5000000 -0.0000000  0.5000000
           tolvrs      1.00000000E-20
            typat      1  1  1  1  2  2  2  2  3  3  3  3  3  3  3  3  3  3  3  3
                       3  3  3  3  3  3
           useylm           1
         wfoptalg         114
              wtk        0.50000    0.50000
           xangst      6.5700377604E+00  6.1994214221E+00  6.1247570026E+00
                       2.6354232191E+00  4.4659118077E+00  8.7421583103E-01
                       1.3348496622E+00  2.8983256069E+00  4.3961758942E+00
                       4.5834707792E+00  1.5317560789E+00  2.6027969394E+00
                       9.3293140108E-01  1.4033822461E+00  1.1375309865E+00
                       5.1792957008E+00  2.3983248486E+00  5.8539673201E+00
                       5.9742128388E+00  5.3328526523E+00  2.3320072570E+00
                       3.0373414802E+00  5.9608551685E+00  4.6594910497E+00
                       2.3154982351E+00  2.2943744639E+00  2.2491564740E+00
                       5.6876819299E+00  9.9711834634E-01  4.8143893073E+00
                       5.4658266097E+00  6.7340591546E+00  1.2924292442E+00
                       1.6547746462E+00  5.0698629507E+00  5.7711165371E+00
                       7.0154330386E+00  2.1540974319E+00  2.5904335259E+00
                       3.8516774876E+00  2.8180852800E+00  4.7006138545E+00
                       1.1859539369E-01  4.5461521345E+00  1.1786537913E+00
                       4.1380755010E+00  5.5770800690E+00  6.1123935891E+00
                       2.0173091660E+00  6.9793638245E+00  1.1524608067E+00
                       1.9529637152E+00  3.8487359006E-01  4.6744208699E+00
                       6.3496974585E+00  3.7130834143E+00  5.7148102583E+00
                       4.8038110812E+00  4.0180940866E+00  2.1928501951E+00
                       1.5651740140E+00  2.5076274795E+00  6.8600396238E+00
                       6.9311599810E+00  5.3566389368E+00  3.8258672881E+00
                       2.4050988672E+00  4.8566099351E+00  3.3380795606E+00
                       4.2223485586E+00  2.3745385641E+00  3.0390722492E-01
                      -5.5669340996E-01  1.0021879967E+00  6.3350633540E-02
                       4.5269662912E+00  6.3620494178E+00  3.5853106967E+00
            xcart      1.2415572050E+01  1.1715208670E+01  1.1574113365E+01
                       4.9802281284E+00  8.4393502502E+00  1.6520285017E+00
                       2.5225002901E+00  5.4770416409E+00  8.3075684720E+00
                       8.6615045109E+00  2.8945994914E+00  4.9185733950E+00
                       1.7629848488E+00  2.6520081048E+00  2.1496220321E+00
                       9.7874504358E+00  4.5321771416E+00  1.1062395026E+01
                       1.1289626125E+01  1.0077631020E+01  4.4068550556E+00
                       5.7397435696E+00  1.1264383786E+01  8.8051620025E+00
                       4.3756575255E+00  4.3357393831E+00  4.2502897658E+00
                       1.0748161179E+01  1.8842805967E+00  9.0978772880E+00
                       1.0328915382E+01  1.2725527565E+01  2.4423373176E+00
                       3.1270708929E+00  9.5806525080E+00  1.0905829736E+01
                       1.3257247147E+01  4.0706542099E+00  4.8952099294E+00
                       7.2786156037E+00  5.3254093984E+00  8.8828728414E+00
                       2.2411281470E-01  8.5909824927E+00  2.2273328710E+00
                       7.8198294141E+00  1.0539153952E+01  1.1550749900E+01
                       3.8121618492E+00  1.3189086210E+01  2.1778353036E+00
                       3.6905665693E+00  7.2730568100E-01  8.8333752740E+00
                       1.1999189223E+01  7.0167107616E+00  1.0799426290E+01
                       9.0778873375E+00  7.5930973999E+00  4.1438863192E+00
                       2.9577502369E+00  4.7387291796E+00  1.2963596150E+01
                       1.3097994147E+01  1.0122580583E+01  7.2298413953E+00
                       4.5449781816E+00  9.1776627115E+00  6.3080561794E+00
                       7.9790824134E+00  4.4872275782E+00  5.7430142490E-01
                      -1.0519980848E+00  1.8938608475E+00  1.1971534774E-01
                       8.5547265032E+00  1.2022531044E+01  6.7752553181E+00
             xred      8.7147264473E-01  8.1880429632E-01  8.6950971799E-01
                       3.3500357332E-01  6.0480800212E-01  1.2410927656E-01
                       1.6499642668E-01  3.9519199788E-01  6.2410927656E-01
                       6.2852735527E-01  1.8119570368E-01  3.6950971799E-01
                       1.1989700139E-01  1.8930946509E-01  1.6149118191E-01
                       7.0531935626E-01  2.9795073318E-01  8.3106668093E-01
                       7.9468064374E-01  7.0204926682E-01  3.3106668093E-01
                       3.8010299861E-01  8.1069053491E-01  6.6149118191E-01
                       3.0632977466E-01  3.0386303818E-01  3.1930465332E-01
                       7.8659848361E-01  9.8664083400E-02  6.8348153031E-01
                       7.1340151639E-01  9.0133591660E-01  1.8348153031E-01
                       1.9367022534E-01  6.9613696182E-01  8.1930465332E-01
                       9.6342170989E-01  2.5075027408E-01  3.6775452865E-01
                       5.1690863787E-01  3.6603480434E-01  6.6732923857E-01
                      -1.6908637872E-02  6.3396519566E-01  1.6732923857E-01
                       5.3657829011E-01  7.4924972592E-01  8.6775452865E-01
                       2.3022064269E-01  9.6018799738E-01  1.6361071478E-01
                       2.6977935731E-01  3.9812002617E-02  6.6361071478E-01
                       8.5901695667E-01  4.7319116221E-01  8.1131105347E-01
                       6.4098304333E-01  5.2680883779E-01  3.1131105347E-01
                       2.0002302726E-01  3.3899315863E-01  9.7389514656E-01
                       9.2808489062E-01  6.9854475538E-01  5.4314461542E-01
                       2.9997697274E-01  6.6100684137E-01  4.7389514656E-01
                       5.7191510938E-01  3.0145524462E-01  4.3144615422E-02
                      -8.5085190331E-02  1.4391347197E-01  8.9936615413E-03
                       5.8508519033E-01  8.5608652803E-01  5.0899366154E-01
            znucl       57.00000   42.00000    8.00000
 
================================================================================
 
 chkinp: Checking input parameters for consistency.
 
================================================================================
== DATASET  1 ==================================================================
-   mpi_nproc: 20, omp_nthreads: 1 (-1 if OMP is not activated)
 

--- !DatasetInfo
iteration_state: {dtset: 1, }
dimensions: {natom: 26, nkpt: 2, mband: 104, nsppol: 1, nspinor: 1, nspden: 1, mpw: 1937, }
cutoff_energies: {ecut:  30.0, pawecutdg:  30.0, }
electrons: {nelect:   2.08000000E+02, charge:   0.00000000E+00, occopt:   1.00000000E+00, tsmear:   1.00000000E-02, }
meta: {optdriver: 0, ionmov: 0, optcell: 0, iscf: 7, paral_kgb: 1, }
...

 Real(R)+Recip(G) space primitive vectors, cartesian coordinates (Bohr,Bohr^-1):
 R(1)= 13.5743481  0.6934163  0.0000000  G(1)=  0.0738673 -0.0038952  0.0000000
 R(2)=  0.7155543 13.5696838  0.0000000  G(2)= -0.0037747  0.0738927  0.0000000
 R(3)=  0.0000000  0.0000000 13.3110799  G(3)=  0.0000000  0.0000000  0.0751254
 Unit cell volume ucvol=  2.4452911E+03 bohr^3
 Angles (23,13,12)=  9.00000000E+01  9.00000000E+01  8.40571947E+01 degrees
 
 Coarse grid specifications (used for wave-functions):
 
 getcut: wavevector=  0.0000  0.0000  0.0000  ngfft=  72  75  75
         ecut(hartree)=     30.000   => boxcut(ratio)=   2.14850
 
 Fine grid specifications (used for densities):
 
 getcut: wavevector=  0.0000  0.0000  0.0000  ngfft=  72  75  75
         ecut(hartree)=     30.000   => boxcut(ratio)=   2.14850
 
--- Pseudopotential description ------------------------------------------------
- pspini: atom type   1  psp file is ~/ABINIT_PAW_PBE/paw_pbe_standard/La.xml
- pspatm: opening atomic psp file    ~/ABINIT_PAW_PBE/paw_pbe_standard/La.xml
- pspatm : Reading pseudopotential header in XML form from ~/ABINIT_PAW_PBE/paw_pbe_standard/La.xml
 Pseudopotential format is: paw10
 basis_size (lnmax)=  8 (lmn_size= 32), orbitals=   0   0   1   1   2   2   3   3
 Spheres core radius: rc_sph= 2.51647158
 1 radial meshes are used:
  - mesh 1: r(i)=AA*[exp(BB*(i-1))-1], size=1500 , AA= 0.15403E-03 BB= 0.87795E-02
 Shapefunction is SIN type: shapef(r)=[sin(pi*r/rshp)/(pi*r/rshp)]**2
 Radius for shape functions =  2.30494653
 mmax= 1500
 Radial grid used for partial waves is grid 1
 Radial grid used for projectors is grid 1
 Radial grid used for (t)core density is grid 1
 Radial grid used for Vloc is grid 1
 Radial grid used for pseudo valence density is grid 1
 Mesh size for Vloc has been set to 1342 to avoid numerical noise.
 Compensation charge density is not taken into account in XC energy/potential
 pspatm: atomic psp has been read  and splines computed
 
- pspini: atom type   2  psp file is ~/ABINIT_PAW_PBE/paw_pbe_standard/Mo.xml
- pspatm: opening atomic psp file    ~/ABINIT_PAW_PBE/paw_pbe_standard/Mo.xml
- pspatm : Reading pseudopotential header in XML form from ~/ABINIT_PAW_PBE/paw_pbe_standard/Mo.xml
 Pseudopotential format is: paw10
 basis_size (lnmax)=  6 (lmn_size= 18), orbitals=   0   0   1   1   2   2
 Spheres core radius: rc_sph= 2.20000000
 1 radial meshes are used:
  - mesh 1: r(i)=AA*[exp(BB*(i-1))-1], size= 846 , AA= 0.34789E-03 BB= 0.14611E-01
 Shapefunction is SIN type: shapef(r)=[sin(pi*r/rshp)/(pi*r/rshp)]**2
 Radius for shape functions =  1.90088266
 mmax=  846
 Radial grid used for partial waves is grid 1
 Radial grid used for projectors is grid 1
 Radial grid used for (t)core density is grid 1
 Radial grid used for Vloc is grid 1
 Radial grid used for pseudo valence density is grid 1
 Mesh size for Vloc has been set to  751 to avoid numerical noise.
 Compensation charge density is not taken into account in XC energy/potential
 pspatm: atomic psp has been read  and splines computed
 
- pspini: atom type   3  psp file is ~/ABINIT_PAW_PBE/paw_pbe_standard/O.xml
- pspatm: opening atomic psp file    ~/ABINIT_PAW_PBE/paw_pbe_standard/O.xml
- pspatm : Reading pseudopotential header in XML form from ~/ABINIT_PAW_PBE/paw_pbe_standard/O.xml
 Pseudopotential format is: paw10
 basis_size (lnmax)=  4 (lmn_size=  8), orbitals=   0   0   1   1
 Spheres core radius: rc_sph= 1.41465230
 1 radial meshes are used:
  - mesh 1: r(i)=AA*[exp(BB*(i-1))-1], size=2001 , AA= 0.72565E-03 BB= 0.58052E-02
 Shapefunction is SIN type: shapef(r)=[sin(pi*r/rshp)/(pi*r/rshp)]**2
 Radius for shape functions =  1.20231231
 mmax= 2001
 Radial grid used for partial waves is grid 1
 Radial grid used for projectors is grid 1
 Radial grid used for (t)core density is grid 1
 Radial grid used for Vloc is grid 1
 Radial grid used for pseudo valence density is grid 1
 Mesh size for Vloc has been set to 1762 to avoid numerical noise.
 Compensation charge density is not taken into account in XC energy/potential
 pspatm: atomic psp has been read  and splines computed
 
   8.97881771E+04                                ecore*ucvol(ha*bohr**3)
--------------------------------------------------------------------------------
 
_setup2: Arith. and geom. avg. npw (full set) are    1935.000    1934.999
 
================================================================================

--- !BeginCycle
iteration_state: {dtset: 1, }
solver: {iscf: 7, nstep: 1, nline: 4, wfoptalg: 114, }
tolerances: {tolvrs: 1.00E-20, }
...
 
     iter   Etot(hartree)      deltaE(h)  residm     vres2
 ETOT  1  -689.59437690213    -6.896E+02 1.949E-02 2.074E+04
 
 Cartesian components of stress tensor (hartree/bohr^3)
  sigma(1 1)= -2.63026486E-03  sigma(3 2)=  0.00000000E+00
  sigma(2 2)= -2.64265319E-03  sigma(3 1)=  0.00000000E+00
  sigma(3 3)= -2.43138869E-03  sigma(2 1)= -1.95170339E-04
 
 
 scprqt:  WARNING -
  nstep=    1 was not enough SCF cycles to converge;
  potential residual=  2.074E+04 exceeds tolvrs=  1.000E-20
 

--- !ResultsGS
iteration_state: {dtset: 1, }
comment   : Summary of ground state results
lattice_vectors:
- [ 13.5743481,   0.6934163,   0.0000000, ]
- [  0.7155543,  13.5696838,   0.0000000, ]
- [  0.0000000,   0.0000000,  13.3110799, ]
lattice_lengths: [  13.59205,   13.58854,   13.31108, ]
lattice_angles: [ 90.000,  90.000,  84.057, ] # degrees, (23, 13, 12)
lattice_volume:   2.4452911E+03
convergence: {deltae: -6.896E+02, res2:  2.074E+04, residm:  1.949E-02, diffor: null, }
etotal    :  -6.89594377E+02
entropy   :   0.00000000E+00
fermie    :   1.41174252E-01
cartesian_stress_tensor: # hartree/bohr^3
- [ -2.63026486E-03,  -1.95170339E-04,   0.00000000E+00, ]
- [ -1.95170339E-04,  -2.64265319E-03,   0.00000000E+00, ]
- [  0.00000000E+00,   0.00000000E+00,  -2.43138869E-03, ]
pressure_GPa:   7.5556E+01
xred      :
- [  8.7147E-01,   8.1880E-01,   8.6951E-01, La]
- [  3.3500E-01,   6.0481E-01,   1.2411E-01, La]
- [  1.6500E-01,   3.9519E-01,   6.2411E-01, La]
- [  6.2853E-01,   1.8120E-01,   3.6951E-01, La]
- [  1.1990E-01,   1.8931E-01,   1.6149E-01, Mo]
- [  7.0532E-01,   2.9795E-01,   8.3107E-01, Mo]
- [  7.9468E-01,   7.0205E-01,   3.3107E-01, Mo]
- [  3.8010E-01,   8.1069E-01,   6.6149E-01, Mo]
- [  3.0633E-01,   3.0386E-01,   3.1930E-01,  O]
- [  7.8660E-01,   9.8664E-02,   6.8348E-01,  O]
- [  7.1340E-01,   9.0134E-01,   1.8348E-01,  O]
- [  1.9367E-01,   6.9614E-01,   8.1930E-01,  O]
- [  9.6342E-01,   2.5075E-01,   3.6775E-01,  O]
- [  5.1691E-01,   3.6603E-01,   6.6733E-01,  O]
- [ -1.6909E-02,   6.3397E-01,   1.6733E-01,  O]
- [  5.3658E-01,   7.4925E-01,   8.6775E-01,  O]
- [  2.3022E-01,   9.6019E-01,   1.6361E-01,  O]
- [  2.6978E-01,   3.9812E-02,   6.6361E-01,  O]
- [  8.5902E-01,   4.7319E-01,   8.1131E-01,  O]
- [  6.4098E-01,   5.2681E-01,   3.1131E-01,  O]
- [  2.0002E-01,   3.3899E-01,   9.7390E-01,  O]
- [  9.2808E-01,   6.9854E-01,   5.4314E-01,  O]
- [  2.9998E-01,   6.6101E-01,   4.7390E-01,  O]
- [  5.7192E-01,   3.0146E-01,   4.3145E-02,  O]
- [ -8.5085E-02,   1.4391E-01,   8.9937E-03,  O]
- [  5.8509E-01,   8.5609E-01,   5.0899E-01,  O]
cartesian_forces: # hartree/bohr
- [  4.21173275E-02,  -6.83197364E-02,  -4.04403605E-02, ]
- [ -6.14425853E-02,  -5.00567539E-02,   1.64841952E-02, ]
- [  6.14425853E-02,   5.00567539E-02,   1.64841952E-02, ]
- [ -4.21173275E-02,   6.83197364E-02,  -4.04403605E-02, ]
- [ -1.00886360E-01,  -8.43599901E-02,  -1.62778288E-02, ]
- [  2.89718562E-02,  -1.42143625E-02,   8.89570086E-02, ]
- [ -2.89718562E-02,   1.42143625E-02,   8.89570086E-02, ]
- [  1.00886360E-01,   8.43599901E-02,  -1.62778288E-02, ]
- [ -4.19074079E-02,  -2.68471873E-02,  -2.36498219E-02, ]
- [ -2.28265183E-02,   2.15016635E-02,   8.12616436E-03, ]
- [  2.28265183E-02,  -2.15016635E-02,   8.12616436E-03, ]
- [  4.19074079E-02,   2.68471873E-02,  -2.36498219E-02, ]
- [  1.67536191E-02,   2.42718500E-03,  -2.78830424E-02, ]
- [  1.93819106E-02,  -6.95008204E-03,   1.94714437E-02, ]
- [ -1.93819106E-02,   6.95008204E-03,   1.94714437E-02, ]
- [ -1.67536191E-02,  -2.42718500E-03,  -2.78830424E-02, ]
- [ -7.36753224E-03,   8.72848138E-03,  -8.33677225E-03, ]
- [  7.36753224E-03,  -8.72848138E-03,  -8.33677225E-03, ]
- [ -1.97479817E-02,  -1.70717802E-02,   3.75330369E-03, ]
- [  1.97479817E-02,   1.70717802E-02,   3.75330369E-03, ]
- [ -1.70757858E-02,  -3.02411227E-02,   1.34346875E-02, ]
- [ -1.85265585E-02,  -7.25761054E-04,  -3.08972148E-02, ]
- [  1.70757858E-02,   3.02411227E-02,   1.34346875E-02, ]
- [  1.85265585E-02,   7.25761054E-04,  -3.08972148E-02, ]
- [  2.48006284E-03,   2.88311302E-02,  -2.74176230E-03, ]
- [ -2.48006284E-03,  -2.88311302E-02,  -2.74176230E-03, ]
force_length_stats: {min:   1.41410286E-02, max:   1.32512767E-01, mean:   5.30207011E-02, }
...

 Integrated electronic density in atomic spheres:
 ------------------------------------------------
 Atom  Sphere_radius  Integrated_density
    1        2.51647          7.77707602
    2        2.51647          7.76421923
    3        2.51647          7.76490632
    4        2.51647          7.77794570
    5        2.20000          9.75342246
    6        2.20000          9.86667842
    7        2.20000          9.86445665
    8        2.20000          9.75295413
    9        1.41465          5.14059599
   10        1.41465          5.13811510
   11        1.41465          5.14005734
   12        1.41465          5.16426019
   13        1.41465          5.08636293
   14        1.41465          5.11284723
   15        1.41465          5.09533786
   16        1.41465          5.09231692
   17        1.41465          5.06006595
   18        1.41465          5.05919598
   19        1.41465          5.13860722
   20        1.41465          5.13768283
   21        1.41465          5.14097291
   22        1.41465          5.14494291
   23        1.41465          5.14909718
   24        1.41465          5.14463376
   25        1.41465          5.08385883
   26        1.41465          5.07425351
 
 PAW TEST:
 ==== Compensation charge inside spheres ============
 The following values must be close to each other ...
 Compensation charge over spherical meshes =     21.321514588194873
 Compensation charge over fft grid         =     21.321602944118247
 
 ==== Results concerning PAW augmentation regions ====
 
 Total pseudopotential strength Dij (hartree):
 Atom #  1
   0.48336  -0.11955  -0.00025   0.00011   0.00024  -0.00014   0.00006   0.00013  -0.00011   0.00001   0.00001  -0.00001 ...
  -0.11955   0.02361   0.00004  -0.00002  -0.00004  -0.00000   0.00000   0.00000   0.00001  -0.00000  -0.00000   0.00000 ...
  -0.00025   0.00004  -0.17992   0.00001  -0.00010   0.04215   0.00001  -0.00013   0.00007   0.00001   0.00003   0.00001 ...
   0.00011  -0.00002   0.00001  -0.17992  -0.00001   0.00001   0.04214  -0.00001   0.00001  -0.00008   0.00006   0.00006 ...
   0.00024  -0.00004  -0.00010  -0.00001  -0.17996  -0.00013  -0.00001   0.04210  -0.00011   0.00001  -0.00005   0.00003 ...
  -0.00014  -0.00000   0.04215   0.00001  -0.00013   0.31867   0.00000  -0.00004   0.00006  -0.00000   0.00003   0.00002 ...
   0.00006   0.00000   0.00001   0.04214  -0.00001   0.00000   0.31866  -0.00000   0.00002  -0.00008   0.00006   0.00005 ...
   0.00013   0.00000  -0.00013  -0.00001   0.04210  -0.00004  -0.00000   0.31865  -0.00012   0.00002  -0.00005   0.00003 ...
  -0.00011   0.00001   0.00007   0.00001  -0.00011   0.00006   0.00002  -0.00012  -0.05845   0.00000   0.00003   0.00000 ...
   0.00001  -0.00000   0.00001  -0.00008   0.00001  -0.00000  -0.00008   0.00002   0.00000  -0.05843   0.00000  -0.00004 ...
   0.00001  -0.00000   0.00003   0.00006  -0.00005   0.00003   0.00006  -0.00005   0.00003   0.00000  -0.05843  -0.00001 ...
  -0.00001   0.00000   0.00001   0.00006   0.00003   0.00002   0.00005   0.00003   0.00000  -0.00004  -0.00001  -0.05846 ...
   ...  only 12  components have been written...
 Atom # 26
   0.63449  -1.82610   0.00005  -0.00029   0.00053  -0.00036   0.00200  -0.00370
  -1.82610   5.31854  -0.00014   0.00075  -0.00138   0.00095  -0.00525   0.00971
   0.00005  -0.00014  -0.33344   0.00018  -0.00014   1.09664  -0.00095   0.00073
  -0.00029   0.00075   0.00018  -0.33366   0.00092  -0.00095   1.09779  -0.00476
   0.00053  -0.00138  -0.00014   0.00092  -0.33410   0.00073  -0.00476   1.10004
  -0.00036   0.00095   1.09664  -0.00095   0.00073  -0.96535   0.00472  -0.00365
   0.00200  -0.00525  -0.00095   1.09779  -0.00476   0.00472  -0.97109   0.02374
  -0.00370   0.00971   0.00073  -0.00476   1.10004  -0.00365   0.02374  -0.98228
 
 
 Augmentation waves occupancies Rhoij:
 Atom #  1
   2.01656  -0.05239  -0.00232  -0.00289  -0.00069   0.00090   0.00099   0.00018   0.00275  -0.00189   0.00030   0.00241 ...
  -0.05239   0.21071   0.00685   0.01046   0.00360  -0.00484  -0.00265   0.00045  -0.01190   0.00804  -0.00109  -0.00644 ...
  -0.00232   0.00685   2.04136   0.00145  -0.00711  -0.01573  -0.00080   0.00321   0.00432   0.01569   0.00370  -0.00094 ...
  -0.00289   0.01046   0.00145   2.03964  -0.00507  -0.00062  -0.01485   0.00221  -0.00608   0.00217  -0.00035   0.00957 ...
  -0.00069   0.00360  -0.00711  -0.00507   2.03386   0.00280   0.00225  -0.01312   0.02080  -0.00200  -0.00198  -0.00043 ...
   0.00090  -0.00484  -0.01573  -0.00062   0.00280   0.01482   0.00031  -0.00193   0.00042  -0.00559  -0.00008   0.00052 ...
   0.00099  -0.00265  -0.00080  -0.01485   0.00225   0.00031   0.01436  -0.00093   0.00309  -0.00325   0.00136  -0.00106 ...
   0.00018   0.00045   0.00321   0.00221  -0.01312  -0.00193  -0.00093   0.01326  -0.00951   0.00084  -0.00079   0.00113 ...
   0.00275  -0.01190   0.00432  -0.00608   0.02080   0.00042   0.00309  -0.00951   0.08626   0.00946  -0.01283   0.00496 ...
  -0.00189   0.00804   0.01569   0.00217  -0.00200  -0.00559  -0.00325   0.00084   0.00946   0.10278  -0.00316  -0.01978 ...
   0.00030  -0.00109   0.00370  -0.00035  -0.00198  -0.00008   0.00136  -0.00079  -0.01283  -0.00316   0.11048  -0.01470 ...
   0.00241  -0.00644  -0.00094   0.00957  -0.00043   0.00052  -0.00106   0.00113   0.00496  -0.01978  -0.01470   0.07178 ...
   ...  only 12  components have been written...
 Atom # 26
   1.99157   0.01059  -0.00189   0.00890  -0.01556  -0.00082   0.00102  -0.00166
   0.01059   0.00090  -0.00212   0.00193  -0.00436  -0.00007   0.00011  -0.00017
  -0.00189  -0.00212   1.88966  -0.00539   0.00840   0.01442  -0.00037  -0.00020
   0.00890   0.00193  -0.00539   1.87508  -0.02881  -0.00059   0.01640  -0.00467
  -0.01556  -0.00436   0.00840  -0.02881   1.90896   0.00033  -0.00476   0.01773
  -0.00082  -0.00007   0.01442  -0.00059   0.00033   0.00024  -0.00003   0.00003
   0.00102   0.00011  -0.00037   0.01640  -0.00476  -0.00003   0.00034  -0.00020
  -0.00166  -0.00017  -0.00020  -0.00467   0.01773   0.00003  -0.00020   0.00042
 
 
================================================================================
 
 ----iterations are completed or convergence reached----
 
 Mean square residual over all n,k,spin=   28.594E-05; max=  19.494E-03
 reduced coordinates (array xred) for   26 atoms
       0.871472644730      0.818804296320      0.869509717990
       0.335003573320      0.604808002120      0.124109276560
       0.164996426680      0.395191997880      0.624109276560
       0.628527355270      0.181195703680      0.369509717990
       0.119897001390      0.189309465090      0.161491181910
       0.705319356260      0.297950733180      0.831066680930
       0.794680643740      0.702049266820      0.331066680930
       0.380102998610      0.810690534910      0.661491181910
       0.306329774660      0.303863038180      0.319304653320
       0.786598483610      0.098664083400      0.683481530310
       0.713401516390      0.901335916600      0.183481530310
       0.193670225340      0.696136961820      0.819304653320
       0.963421709890      0.250750274080      0.367754528650
       0.516908637872      0.366034804340      0.667329238570
      -0.016908637872      0.633965195660      0.167329238570
       0.536578290110      0.749249725920      0.867754528650
       0.230220642690      0.960187997383      0.163610714780
       0.269779357310      0.039812002617      0.663610714780
       0.859016956670      0.473191162210      0.811311053470
       0.640983043330      0.526808837790      0.311311053470
       0.200023027260      0.338993158630      0.973895146560
       0.928084890620      0.698544755380      0.543144615422
       0.299976972740      0.661006841370      0.473895146560
       0.571915109380      0.301455244620      0.043144615422
      -0.085085190331      0.143913471970      0.008993661541
       0.585085190332      0.856086528030      0.508993661541
 rms dE/dt=  5.0114E-01; max dE/dt=  1.4280E+00; dE/dt below (all hartree)
    1      -0.524341249036      0.896939980034      0.517814968321
    2       0.868753211587      0.723219829660     -0.239912342744
    3      -0.868753211587     -0.723219829660     -0.239912342744
    4       0.524341249036     -0.896939980034      0.517814968321
    5       1.427963167012      1.216928060792      0.196185577615
    6      -0.383417592815      0.172153465799     -1.204603755832
    7       0.383417592815     -0.172153465799     -1.204603755832
    8      -1.427963167012     -1.216928060792      0.196185577615
    9       0.587482020441      0.394294869872      0.294314767031
   10       0.294945503216     -0.275437159883     -0.128657926570
   11      -0.294945503216      0.275437159883     -0.128657926570
   12      -0.587482020441     -0.394294869872      0.294314767031
   13      -0.229102507774     -0.044924257864      0.350663503669
   14      -0.258277501897      0.080441605042     -0.279675846919
   15       0.258277501897     -0.080441605042     -0.279675846919
   16       0.229102507774      0.044924257864      0.350663503669
   17       0.093956976635     -0.113170862292      0.090481538799
   18      -0.093956976635      0.113170862292      0.090481538799
   19       0.279903829010      0.245789412630     -0.070450428570
   20      -0.279903829010     -0.245789412630     -0.070450428570
   21       0.252762347907      0.422581124049     -0.199320101841
   22       0.251989209828      0.023105107483      0.390785392449
   23      -0.252762347907     -0.422581124049     -0.199320101841
   24      -0.251989209828     -0.023105107483      0.390785392449
   25      -0.053657211157     -0.393003939203      0.016005914063
   26       0.053657211157      0.393003939203      0.016005914063
 
 cartesian coordinates (angstrom) at end:
    1      6.57003776039274     6.19942142210128     6.12475700260597
    2      2.63542321910261     4.46591180770473     0.87421583102762
    3      1.33484966217576     2.89832560686499     4.39617589420221
    4      4.58347077924886     1.53175607886155     2.60279693943137
    5      0.93293140108154     1.40338224605870     1.13753098648377
    6      5.17929570081517     2.39832484861643     5.85396732014105
    7      5.97421283882643     5.33285265234640     2.33200725696645
    8      3.03734148019683     5.96085516851102     4.65949104965836
    9      2.31549823510841     2.29437446390778     2.24915647395770
   10      5.68768192992189     0.99711834634130     4.81438930733855
   11      5.46582660971971     6.73405915462153     1.29242924416396
   12      1.65477464616996     5.06986295066193     5.77111653713229
   13      7.01543303861816     2.15409743193658     2.59043352591379
   14      3.85167748758470     2.81808528002973     4.70061385446450
   15      0.11859539369366     4.54615213453998     1.17865379128991
   16      4.13807550102344     5.57708006902625     6.11239358908839
   17      2.01730916603366     6.97936382450654     1.15246080672522
   18      1.95296371524471     0.38487359006318     4.67442086989981
   19      6.34969745846896     3.71308341431335     5.71481025826689
   20      4.80381108117264     4.01809408664948     2.19285019509230
   21      1.56517401404928     2.50762747951243     6.86003962380777
   22      6.93115998103005     5.35663893682080     3.82586728809274
   23      2.40509886722909     4.85660993505729     3.33807956063318
   24      4.22234855861155     2.37453856414204     0.30390722491814
   25     -0.55669340996163     1.00218799673219     0.06335063354034
   26      4.52696629124000     6.36204941783753     3.58531069671493
 
 cartesian forces (hartree/bohr) at end:
    1      0.04211732746458    -0.06831973636802    -0.04044036049934
    2     -0.06144258532536    -0.05005675392604     0.01648419516701
    3      0.06144258532536     0.05005675392604     0.01648419516701
    4     -0.04211732746458     0.06831973636802    -0.04044036049934
    5     -0.10088636028458    -0.08435999008553    -0.01627782882365
    6      0.02897185624698    -0.01421436246832     0.08895700859639
    7     -0.02897185624698     0.01421436246832     0.08895700859639
    8      0.10088636028458     0.08435999008553    -0.01627782882365
    9     -0.04190740785173    -0.02684718734455    -0.02364982191910
   10     -0.02282651831975     0.02150166352801     0.00812616436341
   11      0.02282651831975    -0.02150166352801     0.00812616436341
   12      0.04190740785173     0.02684718734455    -0.02364982191910
   13      0.01675361909233     0.00242718500165    -0.02788304243080
   14      0.01938191057940    -0.00695008204409     0.01947144371122
   15     -0.01938191057940     0.00695008204409     0.01947144371122
   16     -0.01675361909233    -0.00242718500165    -0.02788304243080
   17     -0.00736753224485     0.00872848138168    -0.00833677225371
   18      0.00736753224485    -0.00872848138168    -0.00833677225371
   19     -0.01974798171103    -0.01707178020024     0.00375330368948
   20      0.01974798171103     0.01707178020024     0.00375330368948
   21     -0.01707578581083    -0.03024112268656     0.01343468745732
   22     -0.01852655852555    -0.00072576105433    -0.03089721475627
   23      0.01707578581083     0.03024112268656     0.01343468745732
   24      0.01852655852555     0.00072576105433    -0.03089721475627
   25      0.00248006283703     0.02883113022360    -0.00274176230198
   26     -0.00248006283703    -0.02883113022360    -0.00274176230198
 frms,max,avg= 3.6346664E-02 1.0088636E-01   0.000E+00  0.000E+00  1.539E-03 h/b
 
 cartesian forces (eV/Angstrom) at end:
    1      2.16575987437112    -3.51314180079263    -2.07952677311358
    2     -3.15950450529432    -2.57402156358264     0.84765132555111
    3      3.15950450529432     2.57402156358264     0.84765132555111
    4     -2.16575987437112     3.51314180079263    -2.07952677311358
    5     -5.18778479378731    -4.33796474107331    -0.83703954240180
    6      1.48979262272841    -0.73093184508324     4.57435291743508
    7     -1.48979262272841     0.73093184508324     4.57435291743508
    8      5.18778479378731     4.33796474107331    -0.83703954240180
    9     -2.15496537477420    -1.38053776416494    -1.21612263720868
   10     -1.17378666749650     1.10565990067531     0.41786413740587
   11      1.17378666749650    -1.10565990067531     0.41786413740587
   12      2.15496537477420     1.38053776416494    -1.21612263720868
   13      0.86150565966408     0.12481086053414    -1.43380356986804
   14      0.99665783060007    -0.35738755806239     1.00126180896240
   15     -0.99665783060007     0.35738755806239     1.00126180896240
   16     -0.86150565966408    -0.12481086053414    -1.43380356986804
   17     -0.37885370866525     0.44883652118065    -0.42869402964932
   18      0.37885370866525    -0.44883652118065    -0.42869402964932
   19     -1.01548196346329    -0.87786616026056     0.19300261950013
   20      1.01548196346329     0.87786616026056     0.19300261950013
   21     -0.87807213702143    -1.55506092179222     0.69083934739806
   22     -0.95267386323542    -0.03732013079841    -1.58879852966063
   23      0.87807213702143     1.55506092179222     0.69083934739806
   24      0.95267386323542     0.03732013079841    -1.58879852966063
   25      0.12752994792651     1.48255620026122    -0.14098707435062
   26     -0.12752994792651    -1.48255620026122    -0.14098707435062
 frms,max,avg= 1.8690205E+00 5.1877848E+00   0.000E+00  0.000E+00  7.915E-02 e/A
 length scales=  1.000000000000  1.000000000000  1.000000000000 bohr
              =  0.529177208590  0.529177208590  0.529177208590 angstroms
 Fermi (or HOMO) energy (hartree) =   0.14117   Average Vxc (hartree)=  -0.37639
 Eigenvalues (hartree) for nkpt=   2  k points:
 kpt#   1, nband=104, wtk=  0.50000, kpt=  0.2500  0.2500  0.2500 (reduced coord)
  -1.95478   -1.95477   -1.94868   -1.94867   -1.04010   -1.04000   -1.03468   -1.03456
  -1.02911   -1.02899   -1.02325   -1.02317   -1.02283   -1.02274   -1.01811   -1.01797
  -0.98889   -0.98700   -0.98596   -0.98585   -0.61767   -0.61209   -0.59938   -0.59589
  -0.58659   -0.57997   -0.57379   -0.57228   -0.57007   -0.56831   -0.56203   -0.55766
  -0.55493   -0.55198   -0.54937   -0.54669   -0.53143   -0.53054   -0.40155   -0.39998
  -0.39660   -0.39351   -0.38974   -0.38742   -0.38432   -0.38101   -0.37902   -0.37682
  -0.37586   -0.37093   -0.10957   -0.10695   -0.10150   -0.09755   -0.09381   -0.09148
  -0.08994   -0.08515   -0.08260   -0.07874   -0.07746   -0.07545   -0.07152   -0.06945
  -0.06692   -0.06362   -0.06101   -0.06027   -0.05756   -0.05582   -0.05126   -0.04970
  -0.04624   -0.04267   -0.03996   -0.03683   -0.03484   -0.03240   -0.02915   -0.02690
  -0.02350   -0.02287   -0.02027   -0.01955   -0.01641   -0.01362   -0.01139   -0.00954
  -0.00896   -0.00528   -0.00185    0.00037    0.00450    0.00572    0.00845    0.01222
   0.01531    0.01633    0.01850    0.02146    0.02333    0.02669    0.04106    0.14117
 prteigrs : prtvol=0 or 1, do not print more k-points.
 

--- !EnergyTerms
iteration_state     : {dtset: 1, }
comment             : Components of total free energy in Hartree
kinetic             :  2.26556996091314E+02
hartree             :  1.88625702196324E+02
xc                  : -9.39251567607749E+01
Ewald energy        : -5.05893340103269E+02
psp_core            :  3.67188090870117E+01
local_psp           : -5.83616883749841E+02
spherical_terms     :  4.19394963371068E+01
total_energy        : -6.89594376902128E+02
total_energy_eV     : -1.87648172975813E+04
...


--- !EnergyTermsDC
iteration_state     : {dtset: 1, }
comment             : '"Double-counting" decomposition of free energy'
band_energy         : -8.16511495020532E+01
Ewald energy        : -5.05893340103269E+02
psp_core            :  3.67188090870117E+01
xc_dc               : -1.59962935033116E+02
spherical_terms     :  7.26337151551445E+00
total_energy_dc     : -7.03525244035913E+02
total_energy_dc_eV  : -1.91438954706614E+04
...

 
 Cartesian components of stress tensor (hartree/bohr^3)
  sigma(1 1)= -2.63026486E-03  sigma(3 2)=  0.00000000E+00
  sigma(2 2)= -2.64265319E-03  sigma(3 1)=  0.00000000E+00
  sigma(3 3)= -2.43138869E-03  sigma(2 1)= -1.95170339E-04
 
-Cartesian components of stress tensor (GPa)         [Pressure=  7.5556E+01 GPa]
- sigma(1 1)= -7.73850509E+01  sigma(3 2)=  0.00000000E+00
- sigma(2 2)= -7.77495282E+01  sigma(3 1)=  0.00000000E+00
- sigma(3 3)= -7.15339130E+01  sigma(2 1)= -5.74210865E+00
 
== END DATASET(S) ==============================================================
================================================================================
  
 -outvars: echo values of variables after computation  --------
-          iomode           1
            acell      1.0000000000E+00  1.0000000000E+00  1.0000000000E+00 Bohr
              amu      1.38905500E+02  9.59400000E+01  1.59994000E+01
        autoparal           1
           bandpp          26
     densfor_pred           6
           diemac      4.00000000E+00
             ecut      3.00000000E+01 Hartree
           ecutsm      5.00000000E-01 Hartree
           etotal     -6.8959437690E+02
            fcart      4.2117327465E-02 -6.8319736368E-02 -4.0440360499E-02
                      -6.1442585325E-02 -5.0056753926E-02  1.6484195167E-02
                       6.1442585325E-02  5.0056753926E-02  1.6484195167E-02
                      -4.2117327465E-02  6.8319736368E-02 -4.0440360499E-02
                      -1.0088636028E-01 -8.4359990086E-02 -1.6277828824E-02
                       2.8971856247E-02 -1.4214362468E-02  8.8957008596E-02
                      -2.8971856247E-02  1.4214362468E-02  8.8957008596E-02
                       1.0088636028E-01  8.4359990086E-02 -1.6277828824E-02
                      -4.1907407852E-02 -2.6847187345E-02 -2.3649821919E-02
                      -2.2826518320E-02  2.1501663528E-02  8.1261643634E-03
                       2.2826518320E-02 -2.1501663528E-02  8.1261643634E-03
                       4.1907407852E-02  2.6847187345E-02 -2.3649821919E-02
                       1.6753619092E-02  2.4271850017E-03 -2.7883042431E-02
                       1.9381910579E-02 -6.9500820441E-03  1.9471443711E-02
                      -1.9381910579E-02  6.9500820441E-03  1.9471443711E-02
                      -1.6753619092E-02 -2.4271850017E-03 -2.7883042431E-02
                      -7.3675322448E-03  8.7284813817E-03 -8.3367722537E-03
                       7.3675322448E-03 -8.7284813817E-03 -8.3367722537E-03
                      -1.9747981711E-02 -1.7071780200E-02  3.7533036895E-03
                       1.9747981711E-02  1.7071780200E-02  3.7533036895E-03
                      -1.7075785811E-02 -3.0241122687E-02  1.3434687457E-02
                      -1.8526558526E-02 -7.2576105433E-04 -3.0897214756E-02
                       1.7075785811E-02  3.0241122687E-02  1.3434687457E-02
                       1.8526558526E-02  7.2576105433E-04 -3.0897214756E-02
                       2.4800628370E-03  2.8831130224E-02 -2.7417623020E-03
                      -2.4800628370E-03 -2.8831130224E-02 -2.7417623020E-03
-          fftalg         401
             iscf           7
              ixc     -116133
              kpt      2.50000000E-01  2.50000000E-01  2.50000000E-01
                      -2.50000000E-01  2.50000000E-01  2.50000000E-01
         kptrlatt        2    0    0      0    2    0      0    0    2
          kptrlen      2.66221599E+01
P           mkmem           1
            natom          26
            nband         104
            ngfft          72      75      75
          ngfftdg          72      75      75
             nkpt           2
-          npband           2
-           npfft           5
-           npkpt           2
            nstep           1
             nsym           2
           ntypat           3
              occ      2.000000  2.000000  2.000000  2.000000  2.000000  2.000000
                       2.000000  2.000000  2.000000  2.000000  2.000000  2.000000
                       2.000000  2.000000  2.000000  2.000000  2.000000  2.000000
                       2.000000  2.000000  2.000000  2.000000  2.000000  2.000000
                       2.000000  2.000000  2.000000  2.000000  2.000000  2.000000
                       2.000000  2.000000  2.000000  2.000000  2.000000  2.000000
                       2.000000  2.000000  2.000000  2.000000  2.000000  2.000000
                       2.000000  2.000000  2.000000  2.000000  2.000000  2.000000
                       2.000000  2.000000  2.000000  2.000000  2.000000  2.000000
                       2.000000  2.000000  2.000000  2.000000  2.000000  2.000000
                       2.000000  2.000000  2.000000  2.000000  2.000000  2.000000
                       2.000000  2.000000  2.000000  2.000000  2.000000  2.000000
                       2.000000  2.000000  2.000000  2.000000  2.000000  2.000000
                       2.000000  2.000000  2.000000  2.000000  2.000000  2.000000
                       2.000000  2.000000  2.000000  2.000000  2.000000  2.000000
                       2.000000  2.000000  2.000000  2.000000  2.000000  2.000000
                       2.000000  2.000000  2.000000  2.000000  2.000000  2.000000
                       2.000000  2.000000
        paral_kgb           1
        pawecutdg      3.00000000E+01 Hartree
         pawmixdg           1
         pawxcdev           0
           prtcif           1
           prteig           0
            rprim      1.3574348142E+01  6.9341627046E-01  0.0000000000E+00
                       7.1555434730E-01  1.3569683756E+01  0.0000000000E+00
                       0.0000000000E+00  0.0000000000E+00  1.3311079941E+01
           shiftk      5.00000000E-01  5.00000000E-01  5.00000000E-01
          spgroup           4
           strten     -2.6302648613E-03 -2.6426531941E-03 -2.4313886935E-03
                       0.0000000000E+00  0.0000000000E+00 -1.9517033897E-04
           symrel      1  0  0   0  1  0   0  0  1      -1  0  0   0 -1  0   0  0  1
            tnons      0.0000000  0.0000000  0.0000000     0.5000000 -0.0000000  0.5000000
           tolvrs      1.00000000E-20
            typat      1  1  1  1  2  2  2  2  3  3  3  3  3  3  3  3  3  3  3  3
                       3  3  3  3  3  3
           useylm           1
         wfoptalg         114
              wtk        0.50000    0.50000
           xangst      6.5700377604E+00  6.1994214221E+00  6.1247570026E+00
                       2.6354232191E+00  4.4659118077E+00  8.7421583103E-01
                       1.3348496622E+00  2.8983256069E+00  4.3961758942E+00
                       4.5834707792E+00  1.5317560789E+00  2.6027969394E+00
                       9.3293140108E-01  1.4033822461E+00  1.1375309865E+00
                       5.1792957008E+00  2.3983248486E+00  5.8539673201E+00
                       5.9742128388E+00  5.3328526523E+00  2.3320072570E+00
                       3.0373414802E+00  5.9608551685E+00  4.6594910497E+00
                       2.3154982351E+00  2.2943744639E+00  2.2491564740E+00
                       5.6876819299E+00  9.9711834634E-01  4.8143893073E+00
                       5.4658266097E+00  6.7340591546E+00  1.2924292442E+00
                       1.6547746462E+00  5.0698629507E+00  5.7711165371E+00
                       7.0154330386E+00  2.1540974319E+00  2.5904335259E+00
                       3.8516774876E+00  2.8180852800E+00  4.7006138545E+00
                       1.1859539369E-01  4.5461521345E+00  1.1786537913E+00
                       4.1380755010E+00  5.5770800690E+00  6.1123935891E+00
                       2.0173091660E+00  6.9793638245E+00  1.1524608067E+00
                       1.9529637152E+00  3.8487359006E-01  4.6744208699E+00
                       6.3496974585E+00  3.7130834143E+00  5.7148102583E+00
                       4.8038110812E+00  4.0180940866E+00  2.1928501951E+00
                       1.5651740140E+00  2.5076274795E+00  6.8600396238E+00
                       6.9311599810E+00  5.3566389368E+00  3.8258672881E+00
                       2.4050988672E+00  4.8566099351E+00  3.3380795606E+00
                       4.2223485586E+00  2.3745385641E+00  3.0390722492E-01
                      -5.5669340996E-01  1.0021879967E+00  6.3350633540E-02
                       4.5269662912E+00  6.3620494178E+00  3.5853106967E+00
            xcart      1.2415572050E+01  1.1715208670E+01  1.1574113365E+01
                       4.9802281284E+00  8.4393502502E+00  1.6520285017E+00
                       2.5225002901E+00  5.4770416409E+00  8.3075684720E+00
                       8.6615045109E+00  2.8945994914E+00  4.9185733950E+00
                       1.7629848488E+00  2.6520081048E+00  2.1496220321E+00
                       9.7874504358E+00  4.5321771416E+00  1.1062395026E+01
                       1.1289626125E+01  1.0077631020E+01  4.4068550556E+00
                       5.7397435696E+00  1.1264383786E+01  8.8051620025E+00
                       4.3756575255E+00  4.3357393831E+00  4.2502897658E+00
                       1.0748161179E+01  1.8842805967E+00  9.0978772880E+00
                       1.0328915382E+01  1.2725527565E+01  2.4423373176E+00
                       3.1270708929E+00  9.5806525080E+00  1.0905829736E+01
                       1.3257247147E+01  4.0706542099E+00  4.8952099294E+00
                       7.2786156037E+00  5.3254093984E+00  8.8828728414E+00
                       2.2411281470E-01  8.5909824927E+00  2.2273328710E+00
                       7.8198294141E+00  1.0539153952E+01  1.1550749900E+01
                       3.8121618492E+00  1.3189086210E+01  2.1778353036E+00
                       3.6905665693E+00  7.2730568100E-01  8.8333752740E+00
                       1.1999189223E+01  7.0167107616E+00  1.0799426290E+01
                       9.0778873375E+00  7.5930973999E+00  4.1438863192E+00
                       2.9577502369E+00  4.7387291796E+00  1.2963596150E+01
                       1.3097994147E+01  1.0122580583E+01  7.2298413953E+00
                       4.5449781816E+00  9.1776627115E+00  6.3080561794E+00
                       7.9790824134E+00  4.4872275782E+00  5.7430142490E-01
                      -1.0519980848E+00  1.8938608475E+00  1.1971534774E-01
                       8.5547265032E+00  1.2022531044E+01  6.7752553181E+00
             xred      8.7147264473E-01  8.1880429632E-01  8.6950971799E-01
                       3.3500357332E-01  6.0480800212E-01  1.2410927656E-01
                       1.6499642668E-01  3.9519199788E-01  6.2410927656E-01
                       6.2852735527E-01  1.8119570368E-01  3.6950971799E-01
                       1.1989700139E-01  1.8930946509E-01  1.6149118191E-01
                       7.0531935626E-01  2.9795073318E-01  8.3106668093E-01
                       7.9468064374E-01  7.0204926682E-01  3.3106668093E-01
                       3.8010299861E-01  8.1069053491E-01  6.6149118191E-01
                       3.0632977466E-01  3.0386303818E-01  3.1930465332E-01
                       7.8659848361E-01  9.8664083400E-02  6.8348153031E-01
                       7.1340151639E-01  9.0133591660E-01  1.8348153031E-01
                       1.9367022534E-01  6.9613696182E-01  8.1930465332E-01
                       9.6342170989E-01  2.5075027408E-01  3.6775452865E-01
                       5.1690863787E-01  3.6603480434E-01  6.6732923857E-01
                      -1.6908637872E-02  6.3396519566E-01  1.6732923857E-01
                       5.3657829011E-01  7.4924972592E-01  8.6775452865E-01
                       2.3022064269E-01  9.6018799738E-01  1.6361071478E-01
                       2.6977935731E-01  3.9812002617E-02  6.6361071478E-01
                       8.5901695667E-01  4.7319116221E-01  8.1131105347E-01
                       6.4098304333E-01  5.2680883779E-01  3.1131105347E-01
                       2.0002302726E-01  3.3899315863E-01  9.7389514656E-01
                       9.2808489062E-01  6.9854475538E-01  5.4314461542E-01
                       2.9997697274E-01  6.6100684137E-01  4.7389514656E-01
                       5.7191510938E-01  3.0145524462E-01  4.3144615422E-02
                      -8.5085190331E-02  1.4391347197E-01  8.9936615413E-03
                       5.8508519033E-01  8.5608652803E-01  5.0899366154E-01
            znucl       57.00000   42.00000    8.00000
 
================================================================================


- Timing analysis has been suppressed with timopt=0



================================================================================

 Suggested references for the acknowledgment of ABINIT usage.

 The users of ABINIT have little formal obligations with respect to the ABINIT group
 (those specified in the GNU General Public License, http://www.gnu.org/copyleft/gpl.txt).
 However, it is common practice in the scientific literature,
 to acknowledge the efforts of people that have made the research possible.
 In this spirit, please find below suggested citations of work written by ABINIT developers,
 corresponding to implementations inside of ABINIT that you have used in the present run.
 Note also that it will be of great value to readers of publications presenting these results,
 to read papers enabling them to understand the theoretical formalism and details
 of the ABINIT implementation.
 For information on why they are suggested, see also https://docs.abinit.org/theory/acknowledgments.
-
- [1] Implementation of the Projector Augmented-Wave Method in the ABINIT code.
- M. Torrent, F. Jollet, F. Bottin, G. Zerah, and X. Gonze Comput. Mat. Science 42, 337, (2008).
- Comment: PAW calculations. Strong suggestion to cite this paper.
- DOI and bibtex: see https://docs.abinit.org/theory/bibliography/#torrent2008
-
- [2] Libxc: A library of exchange and correlation functionals for density functional theory.
- M.A.L. Marques, M.J.T. Oliveira, T. Burnus, Computer Physics Communications 183, 2227 (2012).
- Comment: to be cited when LibXC is used (negative value of ixc)
- Strong suggestion to cite this paper.
- DOI and bibtex: see https://docs.abinit.org/theory/bibliography/#marques2012
-
- [3] Large scale ab initio calculations based on three levels of parallelization
- F. Bottin, S. Leroux, A. Knyazev, G. Zerah, Comput. Mat. Science 42, 329, (2008).
- Comment: in case LOBPCG algorithm is used (wfoptalg=4/14/114).
- Strong suggestion to cite this paper in your publications.
- This paper is also available at http://www.arxiv.org/abs/0707.3405
- DOI and bibtex: see https://docs.abinit.org/theory/bibliography/#bottin2008
-
- [4] The Abinit project: Impact, environment and recent developments.
- Computer Phys. Comm. 248, 107042 (2020).
- X.Gonze, B. Amadon, G. Antonius, F.Arnardi, L.Baguet, J.-M.Beuken,
- J.Bieder, F.Bottin, J.Bouchet, E.Bousquet, N.Brouwer, F.Bruneval,
- G.Brunin, T.Cavignac, J.-B. Charraud, Wei Chen, M.Cote, S.Cottenier,
- J.Denier, G.Geneste, Ph.Ghosez, M.Giantomassi, Y.Gillet, O.Gingras,
- D.R.Hamann, G.Hautier, Xu He, N.Helbig, N.Holzwarth, Y.Jia, F.Jollet,
- W.Lafargue-Dit-Hauret, K.Lejaeghere, M.A.L.Marques, A.Martin, C.Martins,
- H.P.C. Miranda, F.Naccarato, K. Persson, G.Petretto, V.Planes, Y.Pouillon,
- S.Prokhorenko, F.Ricci, G.-M.Rignanese, A.H.Romero, M.M.Schmitt, M.Torrent,
- M.J.van Setten, B.Van Troeye, M.J.Verstraete, G.Zerah and J.W.Zwanzig
- Comment: the fifth generic paper describing the ABINIT project.
- Note that a version of this paper, that is not formatted for Computer Phys. Comm. 
- is available at https://www.abinit.org/sites/default/files/ABINIT20.pdf .
- The licence allows the authors to put it on the Web.
- DOI and bibtex: see https://docs.abinit.org/theory/bibliography/#gonze2020
-
- [5] ABINIT: Overview, and focus on selected capabilities
- J. Chem. Phys. 152, 124102 (2020).
- A. Romero, D.C. Allan, B. Amadon, G. Antonius, T. Applencourt, L.Baguet,
- J.Bieder, F.Bottin, J.Bouchet, E.Bousquet, F.Bruneval,
- G.Brunin, D.Caliste, M.Cote,
- J.Denier, C. Dreyer, Ph.Ghosez, M.Giantomassi, Y.Gillet, O.Gingras,
- D.R.Hamann, G.Hautier, F.Jollet, G. Jomard,
- A.Martin, 
- H.P.C. Miranda, F.Naccarato, G.Petretto, N.A. Pike, V.Planes,
- S.Prokhorenko, T. Rangel, F.Ricci, G.-M.Rignanese, M.Royo, M.Stengel, M.Torrent,
- M.J.van Setten, B.Van Troeye, M.J.Verstraete, J.Wiktor, J.W.Zwanziger, and X.Gonze.
- Comment: a global overview of ABINIT, with focus on selected capabilities .
- Note that a version of this paper, that is not formatted for J. Chem. Phys 
- is available at https://www.abinit.org/sites/default/files/ABINIT20_JPC.pdf .
- The licence allows the authors to put it on the Web.
- DOI and bibtex: see https://docs.abinit.org/theory/bibliography/#romero2020
-
- [6] Recent developments in the ABINIT software package.
- Computer Phys. Comm. 205, 106 (2016).
- X.Gonze, F.Jollet, F.Abreu Araujo, D.Adams, B.Amadon, T.Applencourt,
- C.Audouze, J.-M.Beuken, J.Bieder, A.Bokhanchuk, E.Bousquet, F.Bruneval
- D.Caliste, M.Cote, F.Dahm, F.Da Pieve, M.Delaveau, M.Di Gennaro,
- B.Dorado, C.Espejo, G.Geneste, L.Genovese, A.Gerossier, M.Giantomassi,
- Y.Gillet, D.R.Hamann, L.He, G.Jomard, J.Laflamme Janssen, S.Le Roux,
- A.Levitt, A.Lherbier, F.Liu, I.Lukacevic, A.Martin, C.Martins,
- M.J.T.Oliveira, S.Ponce, Y.Pouillon, T.Rangel, G.-M.Rignanese,
- A.H.Romero, B.Rousseau, O.Rubel, A.A.Shukri, M.Stankovski, M.Torrent,
- M.J.Van Setten, B.Van Troeye, M.J.Verstraete, D.Waroquier, J.Wiktor,
- B.Xu, A.Zhou, J.W.Zwanziger.
- Comment: the fourth generic paper describing the ABINIT project.
- Note that a version of this paper, that is not formatted for Computer Phys. Comm. 
- is available at https://www.abinit.org/sites/default/files/ABINIT16.pdf .
- The licence allows the authors to put it on the Web.
- DOI and bibtex: see https://docs.abinit.org/theory/bibliography/#gonze2016
-
- Proc.   0 individual time (sec): cpu=         11.6  wall=         13.0
 
================================================================================
 
 Calculation completed.
.Delivered   1 WARNINGs and   0 COMMENTs to log file.
+Overall time at end (sec) : cpu=        246.3  wall=        253.7
