
.Version 9.3.2 of ABINIT 
.(MPI version, prepared for a x86_64_linux_intel19.1 computer) 

.Copyright (C) 1998-2020 ABINIT group . 
 ABINIT comes with ABSOLUTELY NO WARRANTY.
 It is free software, and you are welcome to redistribute it
 under certain conditions (GNU General Public License,
 see ~abinit/COPYING or http://www.gnu.org/copyleft/gpl.txt).

 ABINIT is a project of the Universite Catholique de Louvain,
 Corning Inc. and other collaborators, see ~abinit/doc/developers/contributors.txt .
 Please read https://docs.abinit.org/theory/acknowledgments for suggested
 acknowledgments of the ABINIT effort.
 For more information, see https://www.abinit.org .

.Starting date : Fri 28 May 2021.
- ( at 16h34 )
  
- input  file    -> abi.in
- output file    -> abi.out
- root for input  files -> abi-i
- root for output files -> abi-o
 
- inpspheads : Reading pseudopotential header in XML form from 
-   ~/ABINIT_PAW_PBE/paw_pbe_standard/La.xml
- inpspheads : Reading pseudopotential header in XML form from 
-   ~/ABINIT_PAW_PBE/paw_pbe_standard/Mo.xml
- inpspheads : Reading pseudopotential header in XML form from 
-   ~/ABINIT_PAW_PBE/paw_pbe_standard/O.xml
 
 DATASET    1 : space group P2_1 (#  4); Bravais mP (primitive monocl.)
================================================================================
 Values of the parameters that define the memory need for DATASET  1.
     intxc =       0    ionmov =       0      iscf =       7    lmnmax =      32
     lnmax =       8     mgfft =      75  mpssoang =       4    mqgrid =    3334
     natom =      26  nloc_mem =       2    nspden =       1   nspinor =       1
    nsppol =       1      nsym =       2    n1xccc =       1    ntypat =       3
    occopt =       1   xclevel =       2
-    mband =         104        mffmem =           1         mkmem =           1
       mpw =         602          nfft =       27000          nkpt =           2
Pmy_natom=         7
 PAW method is used; the additional fine FFT grid is defined by:
   mgfftf=        75    nfftf =     27000
================================================================================
P This job should need less than                      36.032 Mbytes of memory.
  Rough estimation (10% accuracy) of disk space for files :
_ WF disk file :     28.662 Mbytes ; DEN or POT disk file :      0.208 Mbytes.
================================================================================
 
--------------------------------------------------------------------------------
------------- Echo of variables that govern the present computation ------------
--------------------------------------------------------------------------------
-
- outvars: echo of selected default values                                      
-   iomode0 =  0 , fftalg0 =512 , wfoptalg0 = 10
-
- outvars: echo of global parameters not present in the input file              
-  max_nthreads =    1
-
 -outvars: echo values of preprocessed input variables --------
-          iomode           1
            acell      1.0000000000E+00  1.0000000000E+00  1.0000000000E+00 Bohr
              amu      1.38905500E+02  9.59400000E+01  1.59994000E+01
        autoparal           1
           bandpp          26
     densfor_pred           6
           diemac      4.00000000E+00
             ecut      3.00000000E+01 Hartree
-          fftalg         401
             iscf           7
              ixc     -116133
           jdtset        1
              kpt      2.50000000E-01  2.50000000E-01  2.50000000E-01
                       2.50000000E-01 -2.50000000E-01  2.50000000E-01
         kptrlatt        2    0    0      0    2    0      0    0    2
          kptrlen      2.66256718E+01
P           mkmem           1
            natom          26
            nband         104
           ndtset           1
            ngfft          72      75      75
          ngfftdg          72      75      75
             nkpt           2
-          npband           2
-           npfft          15
-           npkpt           2
            nstep         100
             nsym           2
           ntypat           3
              occ      2.000000  2.000000  2.000000  2.000000  2.000000  2.000000
                       2.000000  2.000000  2.000000  2.000000  2.000000  2.000000
                       2.000000  2.000000  2.000000  2.000000  2.000000  2.000000
                       2.000000  2.000000  2.000000  2.000000  2.000000  2.000000
                       2.000000  2.000000  2.000000  2.000000  2.000000  2.000000
                       2.000000  2.000000  2.000000  2.000000  2.000000  2.000000
                       2.000000  2.000000  2.000000  2.000000  2.000000  2.000000
                       2.000000  2.000000  2.000000  2.000000  2.000000  2.000000
                       2.000000  2.000000  2.000000  2.000000  2.000000  2.000000
                       2.000000  2.000000  2.000000  2.000000  2.000000  2.000000
                       2.000000  2.000000  2.000000  2.000000  2.000000  2.000000
                       2.000000  2.000000  2.000000  2.000000  2.000000  2.000000
                       2.000000  2.000000  2.000000  2.000000  2.000000  2.000000
                       2.000000  2.000000  2.000000  2.000000  2.000000  2.000000
                       2.000000  2.000000  2.000000  2.000000  2.000000  2.000000
                       2.000000  2.000000  2.000000  2.000000  2.000000  2.000000
                       2.000000  2.000000  2.000000  2.000000  2.000000  2.000000
                       2.000000  2.000000
        paral_kgb           1
        pawecutdg      3.00000000E+01 Hartree
         pawmixdg           1
         pawxcdev           0
           prtcif           1
           prteig           0
            rprim      1.3312835913E+01  0.0000000000E+00  0.0000000000E+00
                       0.0000000000E+00  1.3575229461E+01  6.8556416135E-01
                       0.0000000000E+00  7.1258569169E-01  1.3567245896E+01
           shiftk      5.00000000E-01  5.00000000E-01  5.00000000E-01
          spgroup           4
           symrel      1  0  0   0  1  0   0  0  1       1  0  0   0 -1  0   0  0 -1
            tnons      0.0000000  0.0000000  0.0000000     0.5000000  0.5000000  0.0000000
           tolvrs      1.00000000E-20
            typat      1  1  1  1  2  2  2  2  3  3  3  3  3  3  3  3  3  3  3  3
                       3  3  3  3  3  3
           useylm           1
         wfoptalg         114
              wtk        0.50000    0.50000
           xangst      6.1275433199E+00  6.5727640196E+00  6.1962417151E+00
                       2.6051186464E+00  4.5798731355E+00  1.5274129904E+00
                       8.7471768270E-01  2.6360439243E+00  4.4640292160E+00
                       4.3971423561E+00  1.3328911989E+00  2.8968405602E+00
                       1.1365932033E+00  9.3129739660E-01  1.4026010865E+00
                       4.6590178767E+00  3.0376377266E+00  5.9582686897E+00
                       5.8558945208E+00  5.1765653717E+00  2.3953923962E+00
                       2.3334698473E+00  5.9760717835E+00  5.3282623092E+00
                       2.2491570201E+00  2.3128896175E+00  2.2931724016E+00
                       5.7715816935E+00  1.6560455057E+00  5.0676973747E+00
                       4.8163538895E+00  5.6826108639E+00  9.9315780131E-01
                       1.2939292160E+00  5.4700262912E+00  6.7304969042E+00
                       6.8608678661E+00  1.5653670518E+00  2.5075286056E+00
                       3.3384431926E+00  2.4035680714E+00  4.8533411707E+00
                       3.0625596698E-01  4.2219380013E+00  2.3720199668E+00
                       3.8286806404E+00  6.9306991539E+00  5.3516347387E+00
                       2.5894461773E+00  7.0132838626E+00  2.1455051447E+00
                       1.1804684276E+00  1.1982300315E-01  4.5443147344E+00
                       6.1118708507E+00  4.1393532925E+00  5.5781495608E+00
                       4.7028931010E+00  3.8491121200E+00  2.8165550419E+00
                       1.1485773143E+00  2.0143653990E+00  6.9771620616E+00
                       5.7172878473E+00  6.3478097368E+00  3.7093739753E+00
                       2.1948631739E+00  4.8048274183E+00  4.0142807302E+00
                       4.6710019877E+00  1.9545697242E+00  3.8370771472E-01
                       5.9629405881E-02 -5.5652156913E-01  1.0037138365E+00
                       3.5820540793E+00  4.5254566923E+00  6.3571559397E+00
            xcart      1.1579378742E+01  1.2420723933E+01  1.1709199895E+01
                       4.9229607855E+00  8.6547059494E+00  2.8863922437E+00
                       1.6529768639E+00  4.9814010912E+00  8.4357926675E+00
                       8.3093948204E+00  2.5187993308E+00  5.4742353095E+00
                       2.1478498786E+00  1.7598970278E+00  2.6505319272E+00
                       8.8042678351E+00  5.7403033942E+00  1.1259496050E+01
                       1.1066036907E+01  9.7822908614E+00  4.5266356097E+00
                       4.4096189508E+00  1.1293139021E+01  1.0068956529E+01
                       4.2502907979E+00  4.3707279527E+00  4.3334678145E+00
                       1.0906708754E+01  3.1294724693E+00  9.5765601625E+00
                       9.1015898101E+00  1.0738578253E+01  1.8767962512E+00
                       2.4451718536E+00  1.0336851630E+01  1.2718795887E+01
                       1.2965161301E+01  2.9581150253E+00  4.7385423350E+00
                       6.3087433443E+00  4.5420853967E+00  9.1714856420E+00
                       5.7873990416E-01  7.9783065724E+00  4.4824681189E+00
                       7.2351578607E+00  1.3097123310E+01  1.0113124019E+01
                       4.8933441109E+00  1.3253185792E+01  4.0544171401E+00
                       2.2307620366E+00  2.2643266038E-01  8.5875103096E+00
                       1.1549762067E+01  7.8222440901E+00  1.0541174998E+01
                       8.8871799931E+00  7.2737677616E+00  5.3225176674E+00
                       2.1704965664E+00  3.8065989356E+00  1.3184925481E+01
                       1.0804108254E+01  1.1995621946E+01  7.0097009377E+00
                       4.1476902978E+00  9.0798079363E+00  7.5858912006E+00
                       8.8269145229E+00  3.6936014864E+00  7.2510249590E-01
                       1.1268324658E-01 -1.0516733527E+00  1.8967442669E+00
                       6.7691012031E+00  8.5518737747E+00  1.2013283710E+01
             xred      8.6979054032E-01  8.7196498724E-01  8.1898802707E-01
                       3.6979054032E-01  6.2803501276E-01  1.8101197293E-01
                       1.2416414314E-01  3.3519889009E-01  6.0483847527E-01
                       6.2416414314E-01  1.6480110991E-01  3.9516152473E-01
                       1.6133676496E-01  1.1970292466E-01  1.8931387488E-01
                       6.6133676496E-01  3.8029707534E-01  8.1068612512E-01
                       8.3123062431E-01  7.0495488555E-01  2.9802244580E-01
                       3.3123062431E-01  7.9504511445E-01  7.0197755420E-01
                       3.1926261434E-01  3.0600897223E-01  3.0394370837E-01
                       8.1926261434E-01  1.9399102777E-01  6.9605629163E-01
                       6.8367024649E-01  7.8586526499E-01  9.8622461781E-02
                       1.8367024649E-01  7.1413473501E-01  9.0137753822E-01
                       9.7388425618E-01  2.0010270499E-01  3.3915203771E-01
                       4.7388425618E-01  2.9989729501E-01  6.6084796229E-01
                       4.3472323098E-02  5.7188486771E-01  3.0149113390E-01
                       5.4347232310E-01  9.2811513229E-01  6.9850886610E-01
                       3.6756586973E-01  9.6314527847E-01  2.5017009944E-01
                       1.6756475113E-01 -1.6589200128E-02  6.3379725969E-01
                       8.6756586973E-01  5.3685472153E-01  7.4982990056E-01
                       6.6756475113E-01  5.1658920013E-01  3.6620274031E-01
                       1.6303788168E-01  2.3000536425E-01  9.6019797577E-01
                       8.1155572899E-01  8.5879786823E-01  4.7326774693E-01
                       3.1155572899E-01  6.4120213177E-01  5.2673225307E-01
                       6.6303788168E-01  2.6999463575E-01  3.9802024228E-02
                       8.4642556491E-03 -8.5034067192E-02  1.4410003259E-01
                       5.0846425565E-01  5.8503406719E-01  8.5589996741E-01
            znucl       57.00000   42.00000    8.00000
 
================================================================================
 
 chkinp: Checking input parameters for consistency, jdtset=   1.
 
================================================================================
== DATASET  1 ==================================================================
-   mpi_nproc: 60, omp_nthreads: 1 (-1 if OMP is not activated)
 

--- !DatasetInfo
iteration_state: {dtset: 1, }
dimensions: {natom: 26, nkpt: 2, mband: 104, nsppol: 1, nspinor: 1, nspden: 1, mpw: 602, }
cutoff_energies: {ecut:  30.0, pawecutdg:  30.0, }
electrons: {nelect:   2.08000000E+02, charge:   0.00000000E+00, occopt:   1.00000000E+00, tsmear:   1.00000000E-02, }
meta: {optdriver: 0, ionmov: 0, optcell: 0, iscf: 7, paral_kgb: 1, }
...

 Real(R)+Recip(G) space primitive vectors, cartesian coordinates (Bohr,Bohr^-1):
 R(1)= 13.3128359  0.0000000  0.0000000  G(1)=  0.0751155  0.0000000  0.0000000
 R(2)=  0.0000000 13.5752295  0.6855642  G(2)=  0.0000000  0.0738595 -0.0038793
 R(3)=  0.0000000  0.7125857 13.5672459  G(3)=  0.0000000 -0.0037322  0.0739030
 Unit cell volume ucvol=  2.4454342E+03 bohr^3
 Angles (23,13,12)=  8.41024005E+01  9.00000000E+01  9.00000000E+01 degrees
 
 Coarse grid specifications (used for wave-functions):
 
 getcut: wavevector=  0.0000  0.0000  0.0000  ngfft=  72  75  75
         ecut(hartree)=     30.000   => boxcut(ratio)=   2.19349
 
 Fine grid specifications (used for densities):
 
 getcut: wavevector=  0.0000  0.0000  0.0000  ngfft=  72  75  75
         ecut(hartree)=     30.000   => boxcut(ratio)=   2.19349
 
--- Pseudopotential description ------------------------------------------------
- pspini: atom type   1  psp file is ~/ABINIT_PAW_PBE/paw_pbe_standard/La.xml
- pspatm: opening atomic psp file    ~/ABINIT_PAW_PBE/paw_pbe_standard/La.xml
- pspatm : Reading pseudopotential header in XML form from ~/ABINIT_PAW_PBE/paw_pbe_standard/La.xml
 Pseudopotential format is: paw10
 basis_size (lnmax)=  8 (lmn_size= 32), orbitals=   0   0   1   1   2   2   3   3
 Spheres core radius: rc_sph= 2.51647158
 1 radial meshes are used:
  - mesh 1: r(i)=AA*[exp(BB*(i-1))-1], size=1500 , AA= 0.15403E-03 BB= 0.87795E-02
 Shapefunction is SIN type: shapef(r)=[sin(pi*r/rshp)/(pi*r/rshp)]**2
 Radius for shape functions =  2.30494653
 mmax= 1500
 Radial grid used for partial waves is grid 1
 Radial grid used for projectors is grid 1
 Radial grid used for (t)core density is grid 1
 Radial grid used for Vloc is grid 1
 Radial grid used for pseudo valence density is grid 1
 Mesh size for Vloc has been set to 1342 to avoid numerical noise.
 Compensation charge density is not taken into account in XC energy/potential
 pspatm: atomic psp has been read  and splines computed
 
- pspini: atom type   2  psp file is ~/ABINIT_PAW_PBE/paw_pbe_standard/Mo.xml
- pspatm: opening atomic psp file    ~/ABINIT_PAW_PBE/paw_pbe_standard/Mo.xml
- pspatm : Reading pseudopotential header in XML form from ~/ABINIT_PAW_PBE/paw_pbe_standard/Mo.xml
 Pseudopotential format is: paw10
 basis_size (lnmax)=  6 (lmn_size= 18), orbitals=   0   0   1   1   2   2
 Spheres core radius: rc_sph= 2.20000000
 1 radial meshes are used:
  - mesh 1: r(i)=AA*[exp(BB*(i-1))-1], size= 846 , AA= 0.34789E-03 BB= 0.14611E-01
 Shapefunction is SIN type: shapef(r)=[sin(pi*r/rshp)/(pi*r/rshp)]**2
 Radius for shape functions =  1.90088266
 mmax=  846
 Radial grid used for partial waves is grid 1
 Radial grid used for projectors is grid 1
 Radial grid used for (t)core density is grid 1
 Radial grid used for Vloc is grid 1
 Radial grid used for pseudo valence density is grid 1
 Mesh size for Vloc has been set to  751 to avoid numerical noise.
 Compensation charge density is not taken into account in XC energy/potential
 pspatm: atomic psp has been read  and splines computed
 
- pspini: atom type   3  psp file is ~/ABINIT_PAW_PBE/paw_pbe_standard/O.xml
- pspatm: opening atomic psp file    ~/ABINIT_PAW_PBE/paw_pbe_standard/O.xml
- pspatm : Reading pseudopotential header in XML form from ~/ABINIT_PAW_PBE/paw_pbe_standard/O.xml
 Pseudopotential format is: paw10
 basis_size (lnmax)=  4 (lmn_size=  8), orbitals=   0   0   1   1
 Spheres core radius: rc_sph= 1.41465230
 1 radial meshes are used:
  - mesh 1: r(i)=AA*[exp(BB*(i-1))-1], size=2001 , AA= 0.72565E-03 BB= 0.58052E-02
 Shapefunction is SIN type: shapef(r)=[sin(pi*r/rshp)/(pi*r/rshp)]**2
 Radius for shape functions =  1.20231231
 mmax= 2001
 Radial grid used for partial waves is grid 1
 Radial grid used for projectors is grid 1
 Radial grid used for (t)core density is grid 1
 Radial grid used for Vloc is grid 1
 Radial grid used for pseudo valence density is grid 1
 Mesh size for Vloc has been set to 1762 to avoid numerical noise.
 Compensation charge density is not taken into account in XC energy/potential
 pspatm: atomic psp has been read  and splines computed
 
   8.97881771E+04                                ecore*ucvol(ha*bohr**3)
--------------------------------------------------------------------------------
 
_setup2: Arith. and geom. avg. npw (full set) are     601.000     600.999
 
================================================================================

--- !BeginCycle
iteration_state: {dtset: 1, }
solver: {iscf: 7, nstep: 100, nline: 4, wfoptalg: 114, }
tolerances: {tolvrs: 1.00E-20, }
...
 
     iter   Etot(hartree)      deltaE(h)  residm     vres2
 ETOT  1  -689.64667797504    -6.896E+02 1.208E-02 2.063E+04
 ETOT  2  -682.82586337146     6.821E+00 4.114E-05 4.816E+04
 ETOT  3  -693.64720000323    -1.082E+01 1.206E-04 3.580E+03
 ETOT  4  -694.30581245481    -6.586E-01 4.167E-05 3.541E+02
 ETOT  5  -694.33273880890    -2.693E-02 2.789E-06 1.550E+02
 ETOT  6  -694.35740876886    -2.467E-02 9.422E-07 1.866E+01
 ETOT  7  -694.36035470088    -2.946E-03 3.731E-07 2.443E+00
 ETOT  8  -694.36075540087    -4.007E-04 9.485E-08 1.315E-01
 ETOT  9  -694.36077020874    -1.481E-05 6.137E-09 4.036E-02
 ETOT 10  -694.36077290904    -2.700E-06 9.378E-10 1.427E-02
 ETOT 11  -694.36077559150    -2.682E-06 3.683E-10 7.340E-04
 ETOT 12  -694.36077568499    -9.349E-08 8.200E-11 1.732E-04
 ETOT 13  -694.36077572255    -3.756E-08 1.071E-11 4.193E-05
 ETOT 14  -694.36077572912    -6.578E-09 2.478E-12 5.904E-06
 ETOT 15  -694.36077572974    -6.144E-10 5.782E-13 3.674E-06
 ETOT 16  -694.36077573024    -4.986E-10 8.429E-14 1.834E-07
 ETOT 17  -694.36077573024    -3.070E-12 2.592E-14 7.707E-08
 ETOT 18  -694.36077573025    -8.072E-12 7.528E-15 2.083E-08
 ETOT 19  -694.36077573025    -9.095E-13 7.412E-16 2.306E-09
 ETOT 20  -694.36077573024     4.093E-12 1.300E-16 1.349E-09
 ETOT 21  -694.36077573024     0.000E+00 1.207E-16 1.395E-10
 ETOT 22  -694.36077573024     2.046E-12 1.961E-17 5.018E-11
 ETOT 23  -694.36077573024     1.137E-12 4.660E-18 1.486E-11
 ETOT 24  -694.36077573024     5.684E-13 1.993E-18 6.143E-12
 ETOT 25  -694.36077573024     1.023E-12 2.059E-18 1.818E-12
 ETOT 26  -694.36077573024     1.137E-13 2.121E-19 5.737E-13
 ETOT 27  -694.36077573024    -2.274E-13 1.739E-19 1.801E-13
 ETOT 28  -694.36077573024     4.547E-13 4.334E-21 6.039E-14
 ETOT 29  -694.36077573024    -2.274E-13 2.011E-20 1.491E-14
 ETOT 30  -694.36077573024     0.000E+00 6.288E-21 5.981E-15
 ETOT 31  -694.36077573024    -1.137E-13 4.012E-22 1.584E-15
 ETOT 32  -694.36077573024    -2.274E-13 2.487E-22 1.798E-16
 ETOT 33  -694.36077573024     1.137E-13 2.000E-23 5.848E-17
 ETOT 34  -694.36077573024     2.274E-13 2.493E-23 1.735E-17
 ETOT 35  -694.36077573024     2.274E-13 1.121E-24 9.459E-18
 ETOT 36  -694.36077573024     3.411E-13 1.175E-24 1.518E-18
 ETOT 37  -694.36077573024    -4.547E-13 1.651E-25 8.193E-19
 ETOT 38  -694.36077573024     0.000E+00 4.444E-26 7.423E-20
 ETOT 39  -694.36077573024    -1.137E-13 6.504E-27 1.220E-20
 ETOT 40  -694.36077573024     3.411E-13 6.521E-28 4.891E-21
 
 At SCF step   40       vres2   =  4.89E-21 < tolvrs=  1.00E-20 =>converged.
 
 Cartesian components of stress tensor (hartree/bohr^3)
  sigma(1 1)=  1.51464917E-05  sigma(3 2)=  1.87959269E-07
  sigma(2 2)=  1.42212303E-05  sigma(3 1)=  0.00000000E+00
  sigma(3 3)=  1.42695554E-05  sigma(2 1)=  0.00000000E+00
 

--- !ResultsGS
iteration_state: {dtset: 1, }
comment   : Summary of ground state results
lattice_vectors:
- [ 13.3128359,   0.0000000,   0.0000000, ]
- [  0.0000000,  13.5752295,   0.6855642, ]
- [  0.0000000,   0.7125857,  13.5672459, ]
lattice_lengths: [  13.31284,   13.59253,   13.58595, ]
lattice_angles: [ 84.102,  90.000,  90.000, ] # degrees, (23, 13, 12)
lattice_volume:   2.4454342E+03
convergence: {deltae:  3.411E-13, res2:  4.891E-21, residm:  6.521E-28, diffor: null, }
etotal    :  -6.94360776E+02
entropy   :   0.00000000E+00
fermie    :   1.18688116E-01
cartesian_stress_tensor: # hartree/bohr^3
- [  1.51464917E-05,   0.00000000E+00,   0.00000000E+00, ]
- [  0.00000000E+00,   1.42212303E-05,   1.87959269E-07, ]
- [  0.00000000E+00,   1.87959269E-07,   1.42695554E-05, ]
pressure_GPa:  -4.2795E-01
xred      :
- [  8.6979E-01,   8.7196E-01,   8.1899E-01, La]
- [  3.6979E-01,   6.2804E-01,   1.8101E-01, La]
- [  1.2416E-01,   3.3520E-01,   6.0484E-01, La]
- [  6.2416E-01,   1.6480E-01,   3.9516E-01, La]
- [  1.6134E-01,   1.1970E-01,   1.8931E-01, Mo]
- [  6.6134E-01,   3.8030E-01,   8.1069E-01, Mo]
- [  8.3123E-01,   7.0495E-01,   2.9802E-01, Mo]
- [  3.3123E-01,   7.9505E-01,   7.0198E-01, Mo]
- [  3.1926E-01,   3.0601E-01,   3.0394E-01,  O]
- [  8.1926E-01,   1.9399E-01,   6.9606E-01,  O]
- [  6.8367E-01,   7.8587E-01,   9.8622E-02,  O]
- [  1.8367E-01,   7.1413E-01,   9.0138E-01,  O]
- [  9.7388E-01,   2.0010E-01,   3.3915E-01,  O]
- [  4.7388E-01,   2.9990E-01,   6.6085E-01,  O]
- [  4.3472E-02,   5.7188E-01,   3.0149E-01,  O]
- [  5.4347E-01,   9.2812E-01,   6.9851E-01,  O]
- [  3.6757E-01,   9.6315E-01,   2.5017E-01,  O]
- [  1.6756E-01,  -1.6589E-02,   6.3380E-01,  O]
- [  8.6757E-01,   5.3685E-01,   7.4983E-01,  O]
- [  6.6756E-01,   5.1659E-01,   3.6620E-01,  O]
- [  1.6304E-01,   2.3001E-01,   9.6020E-01,  O]
- [  8.1156E-01,   8.5880E-01,   4.7327E-01,  O]
- [  3.1156E-01,   6.4120E-01,   5.2673E-01,  O]
- [  6.6304E-01,   2.6999E-01,   3.9802E-02,  O]
- [  8.4643E-03,  -8.5034E-02,   1.4410E-01,  O]
- [  5.0846E-01,   5.8503E-01,   8.5590E-01,  O]
cartesian_forces: # hartree/bohr
- [  9.24410284E-07,   8.27946688E-08,   4.48206931E-07, ]
- [  9.24410284E-07,  -8.27946688E-08,  -4.48206931E-07, ]
- [  6.13606061E-07,   1.03750870E-06,  -4.39412285E-09, ]
- [  6.13606061E-07,  -1.03750870E-06,   4.39412285E-09, ]
- [ -1.36039410E-06,   7.76615928E-07,  -1.27280332E-06, ]
- [ -1.36039410E-06,  -7.76615928E-07,   1.27280332E-06, ]
- [ -7.45873813E-07,   1.84769778E-07,   5.40002147E-07, ]
- [ -7.45873813E-07,  -1.84769778E-07,  -5.40002147E-07, ]
- [ -1.13758072E-08,   1.76730878E-06,   7.41004850E-07, ]
- [ -1.13758072E-08,  -1.76730878E-06,  -7.41004850E-07, ]
- [  1.30310232E-06,   5.02347070E-07,   2.75607576E-06, ]
- [  1.30310232E-06,  -5.02347070E-07,  -2.75607576E-06, ]
- [  1.95286222E-06,  -1.14883075E-06,  -1.99553868E-06, ]
- [  1.95286222E-06,   1.14883075E-06,   1.99553868E-06, ]
- [ -2.19973698E-06,   4.39127781E-07,   6.10431912E-07, ]
- [ -2.19973698E-06,  -4.39127781E-07,  -6.10431912E-07, ]
- [ -3.04045938E-06,   1.71835491E-06,  -1.24968039E-06, ]
- [  2.28962999E-06,  -1.21076006E-06,   1.09046988E-06, ]
- [ -3.04045938E-06,  -1.71835491E-06,   1.24968039E-06, ]
- [  2.28962999E-06,   1.21076006E-06,  -1.09046988E-06, ]
- [  7.09836844E-07,  -2.84391779E-06,   4.59245650E-06, ]
- [ -5.74994405E-07,  -2.63806557E-06,  -3.94441813E-06, ]
- [ -5.74994405E-07,   2.63806557E-06,   3.94441813E-06, ]
- [  7.09836844E-07,   2.84391779E-06,  -4.59245650E-06, ]
- [  1.39386762E-07,   3.30680817E-07,  -1.24420682E-07, ]
- [  1.39386762E-07,  -3.30680817E-07,   1.24420682E-07, ]
force_length_stats: {min:   3.79814400E-07, max:   5.44815505E-06, mean:   2.51316755E-06, }
...

 Integrated electronic density in atomic spheres:
 ------------------------------------------------
 Atom  Sphere_radius  Integrated_density
    1        2.51647          7.88309970
    2        2.51647          7.87811448
    3        2.51647          7.85743103
    4        2.51647          7.85704611
    5        2.20000         11.35392457
    6        2.20000         11.35013204
    7        2.20000         11.48636724
    8        2.20000         11.47924427
    9        1.41465          4.54500822
   10        1.41465          4.55713836
   11        1.41465          4.56384677
   12        1.41465          4.57468534
   13        1.41465          4.56000626
   14        1.41465          4.57271818
   15        1.41465          4.56837839
   16        1.41465          4.57203622
   17        1.41465          4.53724072
   18        1.41465          4.56444033
   19        1.41465          4.53032526
   20        1.41465          4.55650162
   21        1.41465          4.53628486
   22        1.41465          4.57193777
   23        1.41465          4.55501290
   24        1.41465          4.53605859
   25        1.41465          4.55692492
   26        1.41465          4.56041639
 
 PAW TEST:
 ==== Compensation charge inside spheres ============
 The following values must be close to each other ...
 Compensation charge over spherical meshes =     21.037913619196246
 Compensation charge over fft grid         =     21.037970751856339
 
 ==== Results concerning PAW augmentation regions ====
 
 Total pseudopotential strength Dij (hartree):
 Atom #  1
   0.47389  -0.11739  -0.00000   0.00025   0.00032   0.00001   0.00002   0.00004  -0.00001   0.00001  -0.00000  -0.00003 ...
  -0.11739   0.02313   0.00000  -0.00005  -0.00006  -0.00000   0.00002   0.00002   0.00001   0.00000  -0.00000   0.00000 ...
  -0.00000   0.00000  -0.18051  -0.00002  -0.00003   0.04285   0.00016   0.00009   0.00009   0.00007  -0.00001   0.00001 ...
   0.00025  -0.00005  -0.00002  -0.18051  -0.00003   0.00016   0.04286  -0.00006   0.00001  -0.00002   0.00009   0.00007 ...
   0.00032  -0.00006  -0.00003  -0.00003  -0.18049   0.00009  -0.00006   0.04291  -0.00001   0.00001  -0.00006   0.00006 ...
   0.00001  -0.00000   0.04285   0.00016   0.00009   0.32003   0.00003   0.00002   0.00005   0.00008  -0.00002   0.00001 ...
   0.00002   0.00002   0.00016   0.04286  -0.00006   0.00003   0.32003  -0.00002   0.00001  -0.00002   0.00002   0.00003 ...
   0.00004   0.00002   0.00009  -0.00006   0.04291   0.00002  -0.00002   0.32005   0.00001   0.00001  -0.00003   0.00001 ...
  -0.00001   0.00001   0.00009   0.00001  -0.00001   0.00005   0.00001   0.00001  -0.05759  -0.00001  -0.00001   0.00001 ...
   0.00001   0.00000   0.00007  -0.00002   0.00001   0.00008  -0.00002   0.00001  -0.00001  -0.05760   0.00000   0.00000 ...
  -0.00000  -0.00000  -0.00001   0.00009  -0.00006  -0.00002   0.00002  -0.00003  -0.00001   0.00000  -0.05759  -0.00001 ...
  -0.00003   0.00000   0.00001   0.00007   0.00006   0.00001   0.00003   0.00001   0.00001   0.00000  -0.00001  -0.05759 ...
   ...  only 12  components have been written...
 Atom # 26
   0.61709  -1.77001   0.00040   0.00030  -0.00023  -0.00283  -0.00224   0.00162
  -1.77001   5.13535  -0.00101  -0.00079   0.00058   0.00744   0.00600  -0.00428
   0.00040  -0.00101  -0.31112  -0.00008   0.00073   0.97334   0.00041  -0.00379
   0.00030  -0.00079  -0.00008  -0.31047   0.00010   0.00041   0.96997  -0.00054
  -0.00023   0.00058   0.00073   0.00010  -0.31076  -0.00379  -0.00054   0.97144
  -0.00283   0.00744   0.97334   0.00041  -0.00379  -0.30056  -0.00205   0.01894
  -0.00224   0.00600   0.00041   0.96997  -0.00054  -0.00205  -0.28369   0.00274
   0.00162  -0.00428  -0.00379  -0.00054   0.97144   0.01894   0.00274  -0.29102
 
 
 Augmentation waves occupancies Rhoij:
 Atom #  1
   2.02516  -0.08062  -0.00057  -0.00353  -0.00380   0.00007   0.00179   0.00180   0.00635   0.01174  -0.00203  -0.00187 ...
  -0.08062   0.25560   0.00108   0.01438   0.01536   0.00008  -0.00329  -0.00416  -0.01148  -0.02098   0.00291   0.00031 ...
  -0.00057   0.00108   2.04454  -0.00948  -0.00477  -0.02133   0.00541   0.00276   0.00408   0.04615   0.00023  -0.00584 ...
  -0.00353   0.01438  -0.00948   2.05319   0.00105   0.00539  -0.02499  -0.00079  -0.00240  -0.00016  -0.01727   0.01886 ...
  -0.00380   0.01536  -0.00477   0.00105   2.04760   0.00276  -0.00079  -0.02212   0.00489  -0.00900   0.00367   0.00467 ...
   0.00007   0.00008  -0.02133   0.00539   0.00276   0.01523  -0.00234  -0.00109  -0.00020  -0.01363  -0.00065   0.00216 ...
   0.00179  -0.00329   0.00541  -0.02499  -0.00079  -0.00234   0.01648   0.00004   0.00093  -0.00035   0.00693  -0.00500 ...
   0.00180  -0.00416   0.00276  -0.00079  -0.02212  -0.00109   0.00004   0.01544  -0.00139   0.00334  -0.00173  -0.00098 ...
   0.00635  -0.01148   0.00408  -0.00240   0.00489  -0.00020   0.00093  -0.00139   0.07574   0.00741   0.02196  -0.02687 ...
   0.01174  -0.02098   0.04615  -0.00016  -0.00900  -0.01363  -0.00035   0.00334   0.00741   0.08334   0.00879   0.01546 ...
  -0.00203   0.00291   0.00023  -0.01727   0.00367  -0.00065   0.00693  -0.00173   0.02196   0.00879   0.11205  -0.00749 ...
  -0.00187   0.00031  -0.00584   0.01886   0.00467   0.00216  -0.00500  -0.00098  -0.02687   0.01546  -0.00749   0.11309 ...
   ...  only 12  components have been written...
 Atom # 26
   1.99341   0.03102  -0.01250   0.00330   0.00615  -0.00271  -0.00135   0.00143
   0.03102   0.00118  -0.00564  -0.00441   0.00312  -0.00025  -0.00015   0.00015
  -0.01250  -0.00564   1.76291  -0.00086  -0.03310   0.03408  -0.00021  -0.00683
   0.00330  -0.00441  -0.00086   1.74021   0.00063  -0.00020   0.02933  -0.00055
   0.00615   0.00312  -0.03310   0.00063   1.74565  -0.00683  -0.00055   0.03054
  -0.00271  -0.00025   0.03408  -0.00020  -0.00683   0.00092   0.00002  -0.00033
  -0.00135  -0.00015  -0.00021   0.02933  -0.00055   0.00002   0.00064  -0.00003
   0.00143   0.00015  -0.00683  -0.00055   0.03054  -0.00033  -0.00003   0.00075
 
 
================================================================================
 
 ----iterations are completed or convergence reached----
 
 Mean square residual over all n,k,spin=   39.869E-30; max=  65.206E-29
 reduced coordinates (array xred) for   26 atoms
       0.869790540320      0.871964987240      0.818988027070
       0.369790540320      0.628035012760      0.181011972930
       0.124164143140      0.335198890090      0.604838475270
       0.624164143140      0.164801109910      0.395161524730
       0.161336764960      0.119702924660      0.189313874880
       0.661336764960      0.380297075340      0.810686125120
       0.831230624310      0.704954885550      0.298022445800
       0.331230624310      0.795045114450      0.701977554200
       0.319262614340      0.306008972230      0.303943708370
       0.819262614340      0.193991027770      0.696056291630
       0.683670246490      0.785865264990      0.098622461781
       0.183670246490      0.714134735010      0.901377538219
       0.973884256180      0.200102704990      0.339152037710
       0.473884256180      0.299897295010      0.660847962290
       0.043472323098      0.571884867710      0.301491133900
       0.543472323098      0.928115132290      0.698508866100
       0.367565869730      0.963145278470      0.250170099440
       0.167564751130     -0.016589200128      0.633797259690
       0.867565869730      0.536854721530      0.749829900560
       0.667564751130      0.516589200128      0.366202740310
       0.163037881680      0.230005364250      0.960197975772
       0.811555728990      0.858797868230      0.473267746930
       0.311555728990      0.641202131770      0.526732253070
       0.663037881680      0.269994635750      0.039802024228
       0.008464255649     -0.085034067192      0.144100032590
       0.508464255649      0.585034067191      0.855899967410
 rms dE/dt=  1.8295E-04; max dE/dt=  6.0280E-05; dE/dt below (all hartree)
    1      -0.000326749546     -0.000001431231     -0.000006139932
    2      -0.000326749546      0.000001431231      0.000006139932
    3      -0.000322611861     -0.000014081406     -0.000000679698
    4      -0.000322611861      0.000014081406      0.000000679698
    5      -0.000296332320     -0.000009670151      0.000016715030
    6      -0.000296332320      0.000009670151     -0.000016715030
    7      -0.000304513328     -0.000002878498     -0.000007458006
    8      -0.000304513328      0.000002878498      0.000007458006
    9      -0.000314291579     -0.000024499629     -0.000011312754
   10      -0.000314291579      0.000024499629      0.000011312754
   11      -0.000331791011     -0.000008708944     -0.000037750323
   12      -0.000331791011      0.000008708944      0.000037750323
   13      -0.000340441158      0.000016963711      0.000027892604
   14      -0.000340441158     -0.000016963711     -0.000027892604
   15      -0.000285158286     -0.000006379751     -0.000008594796
   16      -0.000285158286      0.000006379751      0.000008594796
   17      -0.000273965887     -0.000022470326      0.000015730246
   18      -0.000344924492      0.000015688759     -0.000013931903
   19      -0.000273965887      0.000022470326     -0.000015730246
   20      -0.000344924492     -0.000015688759      0.000013931903
   21      -0.000323892965      0.000035458413     -0.000060280452
   22      -0.000306788218      0.000038516497      0.000055394738
   23      -0.000306788218     -0.000038516497     -0.000055394738
   24      -0.000323892965     -0.000035458413      0.000060280452
   25      -0.000316298657     -0.000004403770      0.000001452408
   26      -0.000316298657      0.000004403770     -0.000001452408
 
 cartesian coordinates (angstrom) at end:
    1      6.12754331987716     6.57276401961562     6.19624171505162
    2      2.60511864644785     4.57987313549612     1.52741299043884
    3      0.87471768270309     2.63604392429601     4.46402921604071
    4      4.39714235613240     1.33289119888272     2.89684056023764
    5      1.13659320325274     0.93129739660038     1.40260108653499
    6      4.65901787668205     3.03763772657835     5.95826868974336
    7      5.85589452075919     5.17656537165033     2.39539239624217
    8      2.33346984732988     5.97607178346141     5.32826230924828
    9      2.24915702010953     2.31288961751186     2.29317240159669
   10      5.77158169353884     1.65604550566687     5.06769737468166
   11      4.81635388945175     5.68261086388618     0.99315780131120
   12      1.29392921602244     5.47002629122556     6.73049690417926
   13      6.86086786606557     1.56536705178104     2.50752860561132
   14      3.33844319263626     2.40356807139769     4.85334117066703
   15      0.30625596698337     4.22193800125915     2.37201996675505
   16      3.82868064041269     6.93069915385259     5.35163473873541
   17      2.58944617729491     7.01328386259015     2.14550514465900
   18      1.18046842755471     0.11982300315251     4.54431473435012
   19      6.11187085072423     4.13935329252159     5.57814956083146
   20      4.70289310098402     3.84911212002622     2.81655504192822
   21      1.14857731426656     2.01436539895919     6.97716206155658
   22      5.71728784731458     6.34780973684703     3.70937397526353
   23      2.19486317388526     4.80482741826471     4.01428073022693
   24      4.67100198769587     1.95456972421954     0.38370771472177
   25      0.05962940588121    -0.55652156912865     1.00371383654446
   26      3.58205407931052     4.52545669230738     6.35715593973389
 
 cartesian forces (hartree/bohr) at end:
    1      0.00000092441028     0.00000008279467     0.00000044820693
    2      0.00000092441028    -0.00000008279467    -0.00000044820693
    3      0.00000061360606     0.00000103750870    -0.00000000439412
    4      0.00000061360606    -0.00000103750870     0.00000000439412
    5     -0.00000136039410     0.00000077661593    -0.00000127280332
    6     -0.00000136039410    -0.00000077661593     0.00000127280332
    7     -0.00000074587381     0.00000018476978     0.00000054000215
    8     -0.00000074587381    -0.00000018476978    -0.00000054000215
    9     -0.00000001137581     0.00000176730878     0.00000074100485
   10     -0.00000001137581    -0.00000176730878    -0.00000074100485
   11      0.00000130310232     0.00000050234707     0.00000275607576
   12      0.00000130310232    -0.00000050234707    -0.00000275607576
   13      0.00000195286222    -0.00000114883075    -0.00000199553868
   14      0.00000195286222     0.00000114883075     0.00000199553868
   15     -0.00000219973698     0.00000043912778     0.00000061043191
   16     -0.00000219973698    -0.00000043912778    -0.00000061043191
   17     -0.00000304045938     0.00000171835491    -0.00000124968039
   18      0.00000228962999    -0.00000121076006     0.00000109046988
   19     -0.00000304045938    -0.00000171835491     0.00000124968039
   20      0.00000228962999     0.00000121076006    -0.00000109046988
   21      0.00000070983684    -0.00000284391779     0.00000459245650
   22     -0.00000057499441    -0.00000263806557    -0.00000394441813
   23     -0.00000057499441     0.00000263806557     0.00000394441813
   24      0.00000070983684     0.00000284391779    -0.00000459245650
   25      0.00000013938676     0.00000033068082    -0.00000012442068
   26      0.00000013938676    -0.00000033068082     0.00000012442068
 frms,max,avg= 1.6759343E-06 4.5924565E-06   2.362E-05  0.000E+00  0.000E+00 h/b
 
 cartesian forces (eV/Angstrom) at end:
    1      0.00004753508405     0.00000425747269     0.00002304772515
    2      0.00004753508405    -0.00000425747269    -0.00002304772515
    3      0.00003155288963     0.00005335083795    -0.00000022595486
    4      0.00003155288963    -0.00005335083795     0.00000022595486
    5     -0.00006995427134     0.00003993519331    -0.00006545017275
    6     -0.00006995427134    -0.00003993519331     0.00006545017275
    7     -0.00003835437034     0.00000950124318     0.00002776802452
    8     -0.00003835437034    -0.00000950124318    -0.00002776802452
    9     -0.00000058496748     0.00009087866372     0.00003810399821
   10     -0.00000058496748    -0.00009087866372    -0.00003810399821
   11      0.00006700821006     0.00002583172276     0.00014172310184
   12      0.00006700821006    -0.00002583172276    -0.00014172310184
   13      0.00010042020457    -0.00005907524736    -0.00010261471623
   14      0.00010042020457     0.00005907524736     0.00010261471623
   15     -0.00011311501385     0.00002258085649     0.00003138966836
   16     -0.00011311501385    -0.00002258085649    -0.00003138966836
   17     -0.00015634669442     0.00008836135503    -0.00006426114380
   18      0.00011773749781    -0.00006225978048     0.00005607421110
   19     -0.00015634669442    -0.00008836135503     0.00006426114380
   20      0.00011773749781     0.00006225978048    -0.00005607421110
   21      0.00003650127506    -0.00014624012023     0.00023615358857
   22     -0.00002956739865    -0.00013565477465    -0.00020283011829
   23     -0.00002956739865     0.00013565477465     0.00020283011829
   24      0.00003650127506     0.00014624012023    -0.00023615358857
   25      0.00000716755490     0.00001700428987    -0.00000639796819
   26      0.00000716755490    -0.00001700428987     0.00000639796819
 frms,max,avg= 8.6180002E-05 2.3615359E-04   1.215E-03  0.000E+00  0.000E+00 e/A
 length scales=  1.000000000000  1.000000000000  1.000000000000 bohr
              =  0.529177208590  0.529177208590  0.529177208590 angstroms
 Fermi (or HOMO) energy (hartree) =   0.11869   Average Vxc (hartree)=  -0.38802
 Eigenvalues (hartree) for nkpt=   2  k points:
 kpt#   1, nband=104, wtk=  0.50000, kpt=  0.2500  0.2500  0.2500 (reduced coord)
  -2.13338   -2.13337   -2.12631   -2.12630   -1.19246   -1.19243   -1.19102   -1.19101
  -1.18507   -1.18504   -1.18390   -1.18386   -1.17770   -1.17768   -1.17709   -1.17707
  -0.98097   -0.98033   -0.97653   -0.97557   -0.52928   -0.52558   -0.51532   -0.51114
  -0.50545   -0.50111   -0.49741   -0.49596   -0.49279   -0.48864   -0.48360   -0.48094
  -0.47808   -0.47598   -0.47363   -0.46900   -0.46702   -0.46315   -0.38063   -0.37961
  -0.37657   -0.37361   -0.36948   -0.36792   -0.36350   -0.35899   -0.35624   -0.35321
  -0.34729   -0.33861   -0.06582   -0.06165   -0.05921   -0.05596   -0.05144   -0.04687
  -0.04408   -0.04155   -0.03904   -0.03459   -0.02893   -0.02641   -0.02425   -0.01897
  -0.01789   -0.01644   -0.01156   -0.00985   -0.00920   -0.00143    0.00396    0.00959
   0.01159    0.02329    0.02676    0.02874    0.03097    0.03516    0.03964    0.04235
   0.04879    0.05033    0.05403    0.05534    0.05834    0.06144    0.06357    0.06814
   0.07024    0.07446    0.07693    0.08137    0.08442    0.08829    0.08971    0.09330
   0.09436    0.09629    0.09867    0.10006    0.10375    0.10742    0.11387    0.11542
 prteigrs : prtvol=0 or 1, do not print more k-points.
 

--- !EnergyTerms
iteration_state     : {dtset: 1, }
comment             : Components of total free energy in Hartree
kinetic             :  2.14120737516119E+02
hartree             :  1.85167191370429E+02
xc                  : -9.12545695749405E+01
Ewald energy        : -5.05855392816728E+02
psp_core            :  3.67166603827942E+01
local_psp           : -5.77743286433658E+02
spherical_terms     :  4.44878838257454E+01
total_energy        : -6.94360775730239E+02
total_energy_eV     : -1.88945176057229E+04
...


--- !EnergyTermsDC
iteration_state     : {dtset: 1, }
comment             : '"Double-counting" decomposition of free energy'
band_energy         : -7.66615467275180E+01
Ewald energy        : -5.05855392816728E+02
psp_core            :  3.67166603827942E+01
xc_dc               : -1.57287159200451E+02
spherical_terms     :  8.72666263481473E+00
total_energy_dc     : -6.94360775727088E+02
total_energy_dc_eV  : -1.88945176056372E+04
...

 
 Cartesian components of stress tensor (hartree/bohr^3)
  sigma(1 1)=  1.51464917E-05  sigma(3 2)=  1.87959269E-07
  sigma(2 2)=  1.42212303E-05  sigma(3 1)=  0.00000000E+00
  sigma(3 3)=  1.42695554E-05  sigma(2 1)=  0.00000000E+00
 
-Cartesian components of stress tensor (GPa)         [Pressure= -4.2795E-01 GPa]
- sigma(1 1)=  4.45625096E-01  sigma(3 2)=  5.52995169E-03
- sigma(2 2)=  4.18402971E-01  sigma(3 1)=  0.00000000E+00
- sigma(3 3)=  4.19824744E-01  sigma(2 1)=  0.00000000E+00
 
== END DATASET(S) ==============================================================
================================================================================
  
 -outvars: echo values of variables after computation  --------
-          iomode           1
            acell      1.0000000000E+00  1.0000000000E+00  1.0000000000E+00 Bohr
              amu      1.38905500E+02  9.59400000E+01  1.59994000E+01
        autoparal           1
           bandpp          26
     densfor_pred           6
           diemac      4.00000000E+00
             ecut      3.00000000E+01 Hartree
           etotal1    -6.9436077573E+02
            fcart1     9.2441028412E-07  8.2794668804E-08  4.4820693137E-07
                       9.2441028412E-07 -8.2794668804E-08 -4.4820693137E-07
                       6.1360606077E-07  1.0375087004E-06 -4.3941228535E-09
                       6.1360606077E-07 -1.0375087004E-06  4.3941228535E-09
                      -1.3603940993E-06  7.7661592777E-07 -1.2728033200E-06
                      -1.3603940993E-06 -7.7661592777E-07  1.2728033200E-06
                      -7.4587381281E-07  1.8476977759E-07  5.4000214688E-07
                      -7.4587381281E-07 -1.8476977759E-07 -5.4000214688E-07
                      -1.1375807218E-08  1.7673087791E-06  7.4100484970E-07
                      -1.1375807218E-08 -1.7673087791E-06 -7.4100484970E-07
                       1.3031023243E-06  5.0234706963E-07  2.7560757589E-06
                       1.3031023243E-06 -5.0234706963E-07 -2.7560757589E-06
                       1.9528622216E-06 -1.1488307487E-06 -1.9955386825E-06
                       1.9528622216E-06  1.1488307487E-06  1.9955386825E-06
                      -2.1997369772E-06  4.3912778066E-07  6.1043191209E-07
                      -2.1997369772E-06 -4.3912778066E-07 -6.1043191209E-07
                      -3.0404593809E-06  1.7183549150E-06 -1.2496803864E-06
                       2.2896299856E-06 -1.2107600632E-06  1.0904698805E-06
                      -3.0404593809E-06 -1.7183549150E-06  1.2496803864E-06
                       2.2896299856E-06  1.2107600632E-06 -1.0904698805E-06
                       7.0983684426E-07 -2.8439177884E-06  4.5924565043E-06
                      -5.7499440549E-07 -2.6380655739E-06 -3.9444181290E-06
                      -5.7499440549E-07  2.6380655739E-06  3.9444181290E-06
                       7.0983684426E-07  2.8439177884E-06 -4.5924565043E-06
                       1.3938676233E-07  3.3068081698E-07 -1.2442068225E-07
                       1.3938676233E-07 -3.3068081698E-07  1.2442068225E-07
-          fftalg         401
             iscf           7
              ixc     -116133
           jdtset        1
              kpt      2.50000000E-01  2.50000000E-01  2.50000000E-01
                       2.50000000E-01 -2.50000000E-01  2.50000000E-01
         kptrlatt        2    0    0      0    2    0      0    0    2
          kptrlen      2.66256718E+01
P           mkmem           1
            natom          26
            nband         104
           ndtset           1
            ngfft          72      75      75
          ngfftdg          72      75      75
             nkpt           2
-          npband           2
-           npfft          15
-           npkpt           2
            nstep         100
             nsym           2
           ntypat           3
              occ      2.000000  2.000000  2.000000  2.000000  2.000000  2.000000
                       2.000000  2.000000  2.000000  2.000000  2.000000  2.000000
                       2.000000  2.000000  2.000000  2.000000  2.000000  2.000000
                       2.000000  2.000000  2.000000  2.000000  2.000000  2.000000
                       2.000000  2.000000  2.000000  2.000000  2.000000  2.000000
                       2.000000  2.000000  2.000000  2.000000  2.000000  2.000000
                       2.000000  2.000000  2.000000  2.000000  2.000000  2.000000
                       2.000000  2.000000  2.000000  2.000000  2.000000  2.000000
                       2.000000  2.000000  2.000000  2.000000  2.000000  2.000000
                       2.000000  2.000000  2.000000  2.000000  2.000000  2.000000
                       2.000000  2.000000  2.000000  2.000000  2.000000  2.000000
                       2.000000  2.000000  2.000000  2.000000  2.000000  2.000000
                       2.000000  2.000000  2.000000  2.000000  2.000000  2.000000
                       2.000000  2.000000  2.000000  2.000000  2.000000  2.000000
                       2.000000  2.000000  2.000000  2.000000  2.000000  2.000000
                       2.000000  2.000000  2.000000  2.000000  2.000000  2.000000
                       2.000000  2.000000  2.000000  2.000000  2.000000  2.000000
                       2.000000  2.000000
        paral_kgb           1
        pawecutdg      3.00000000E+01 Hartree
         pawmixdg           1
         pawxcdev           0
           prtcif           1
           prteig           0
            rprim      1.3312835913E+01  0.0000000000E+00  0.0000000000E+00
                       0.0000000000E+00  1.3575229461E+01  6.8556416135E-01
                       0.0000000000E+00  7.1258569169E-01  1.3567245896E+01
           shiftk      5.00000000E-01  5.00000000E-01  5.00000000E-01
          spgroup           4
           strten1     1.5146491695E-05  1.4221230319E-05  1.4269555415E-05
                       1.8795926937E-07  0.0000000000E+00  0.0000000000E+00
           symrel      1  0  0   0  1  0   0  0  1       1  0  0   0 -1  0   0  0 -1
            tnons      0.0000000  0.0000000  0.0000000     0.5000000  0.5000000  0.0000000
           tolvrs      1.00000000E-20
            typat      1  1  1  1  2  2  2  2  3  3  3  3  3  3  3  3  3  3  3  3
                       3  3  3  3  3  3
           useylm           1
         wfoptalg         114
              wtk        0.50000    0.50000
           xangst      6.1275433199E+00  6.5727640196E+00  6.1962417151E+00
                       2.6051186464E+00  4.5798731355E+00  1.5274129904E+00
                       8.7471768270E-01  2.6360439243E+00  4.4640292160E+00
                       4.3971423561E+00  1.3328911989E+00  2.8968405602E+00
                       1.1365932033E+00  9.3129739660E-01  1.4026010865E+00
                       4.6590178767E+00  3.0376377266E+00  5.9582686897E+00
                       5.8558945208E+00  5.1765653717E+00  2.3953923962E+00
                       2.3334698473E+00  5.9760717835E+00  5.3282623092E+00
                       2.2491570201E+00  2.3128896175E+00  2.2931724016E+00
                       5.7715816935E+00  1.6560455057E+00  5.0676973747E+00
                       4.8163538895E+00  5.6826108639E+00  9.9315780131E-01
                       1.2939292160E+00  5.4700262912E+00  6.7304969042E+00
                       6.8608678661E+00  1.5653670518E+00  2.5075286056E+00
                       3.3384431926E+00  2.4035680714E+00  4.8533411707E+00
                       3.0625596698E-01  4.2219380013E+00  2.3720199668E+00
                       3.8286806404E+00  6.9306991539E+00  5.3516347387E+00
                       2.5894461773E+00  7.0132838626E+00  2.1455051447E+00
                       1.1804684276E+00  1.1982300315E-01  4.5443147344E+00
                       6.1118708507E+00  4.1393532925E+00  5.5781495608E+00
                       4.7028931010E+00  3.8491121200E+00  2.8165550419E+00
                       1.1485773143E+00  2.0143653990E+00  6.9771620616E+00
                       5.7172878473E+00  6.3478097368E+00  3.7093739753E+00
                       2.1948631739E+00  4.8048274183E+00  4.0142807302E+00
                       4.6710019877E+00  1.9545697242E+00  3.8370771472E-01
                       5.9629405881E-02 -5.5652156913E-01  1.0037138365E+00
                       3.5820540793E+00  4.5254566923E+00  6.3571559397E+00
            xcart      1.1579378742E+01  1.2420723933E+01  1.1709199895E+01
                       4.9229607855E+00  8.6547059494E+00  2.8863922437E+00
                       1.6529768639E+00  4.9814010912E+00  8.4357926675E+00
                       8.3093948204E+00  2.5187993308E+00  5.4742353095E+00
                       2.1478498786E+00  1.7598970278E+00  2.6505319272E+00
                       8.8042678351E+00  5.7403033942E+00  1.1259496050E+01
                       1.1066036907E+01  9.7822908614E+00  4.5266356097E+00
                       4.4096189508E+00  1.1293139021E+01  1.0068956529E+01
                       4.2502907979E+00  4.3707279527E+00  4.3334678145E+00
                       1.0906708754E+01  3.1294724693E+00  9.5765601625E+00
                       9.1015898101E+00  1.0738578253E+01  1.8767962512E+00
                       2.4451718536E+00  1.0336851630E+01  1.2718795887E+01
                       1.2965161301E+01  2.9581150253E+00  4.7385423350E+00
                       6.3087433443E+00  4.5420853967E+00  9.1714856420E+00
                       5.7873990416E-01  7.9783065724E+00  4.4824681189E+00
                       7.2351578607E+00  1.3097123310E+01  1.0113124019E+01
                       4.8933441109E+00  1.3253185792E+01  4.0544171401E+00
                       2.2307620366E+00  2.2643266038E-01  8.5875103096E+00
                       1.1549762067E+01  7.8222440901E+00  1.0541174998E+01
                       8.8871799931E+00  7.2737677616E+00  5.3225176674E+00
                       2.1704965664E+00  3.8065989356E+00  1.3184925481E+01
                       1.0804108254E+01  1.1995621946E+01  7.0097009377E+00
                       4.1476902978E+00  9.0798079363E+00  7.5858912006E+00
                       8.8269145229E+00  3.6936014864E+00  7.2510249590E-01
                       1.1268324658E-01 -1.0516733527E+00  1.8967442669E+00
                       6.7691012031E+00  8.5518737747E+00  1.2013283710E+01
             xred      8.6979054032E-01  8.7196498724E-01  8.1898802707E-01
                       3.6979054032E-01  6.2803501276E-01  1.8101197293E-01
                       1.2416414314E-01  3.3519889009E-01  6.0483847527E-01
                       6.2416414314E-01  1.6480110991E-01  3.9516152473E-01
                       1.6133676496E-01  1.1970292466E-01  1.8931387488E-01
                       6.6133676496E-01  3.8029707534E-01  8.1068612512E-01
                       8.3123062431E-01  7.0495488555E-01  2.9802244580E-01
                       3.3123062431E-01  7.9504511445E-01  7.0197755420E-01
                       3.1926261434E-01  3.0600897223E-01  3.0394370837E-01
                       8.1926261434E-01  1.9399102777E-01  6.9605629163E-01
                       6.8367024649E-01  7.8586526499E-01  9.8622461781E-02
                       1.8367024649E-01  7.1413473501E-01  9.0137753822E-01
                       9.7388425618E-01  2.0010270499E-01  3.3915203771E-01
                       4.7388425618E-01  2.9989729501E-01  6.6084796229E-01
                       4.3472323098E-02  5.7188486771E-01  3.0149113390E-01
                       5.4347232310E-01  9.2811513229E-01  6.9850886610E-01
                       3.6756586973E-01  9.6314527847E-01  2.5017009944E-01
                       1.6756475113E-01 -1.6589200128E-02  6.3379725969E-01
                       8.6756586973E-01  5.3685472153E-01  7.4982990056E-01
                       6.6756475113E-01  5.1658920013E-01  3.6620274031E-01
                       1.6303788168E-01  2.3000536425E-01  9.6019797577E-01
                       8.1155572899E-01  8.5879786823E-01  4.7326774693E-01
                       3.1155572899E-01  6.4120213177E-01  5.2673225307E-01
                       6.6303788168E-01  2.6999463575E-01  3.9802024228E-02
                       8.4642556491E-03 -8.5034067192E-02  1.4410003259E-01
                       5.0846425565E-01  5.8503406719E-01  8.5589996741E-01
            znucl       57.00000   42.00000    8.00000
 
================================================================================


- Timing analysis has been suppressed with timopt=0



================================================================================

 Suggested references for the acknowledgment of ABINIT usage.

 The users of ABINIT have little formal obligations with respect to the ABINIT group
 (those specified in the GNU General Public License, http://www.gnu.org/copyleft/gpl.txt).
 However, it is common practice in the scientific literature,
 to acknowledge the efforts of people that have made the research possible.
 In this spirit, please find below suggested citations of work written by ABINIT developers,
 corresponding to implementations inside of ABINIT that you have used in the present run.
 Note also that it will be of great value to readers of publications presenting these results,
 to read papers enabling them to understand the theoretical formalism and details
 of the ABINIT implementation.
 For information on why they are suggested, see also https://docs.abinit.org/theory/acknowledgments.
-
- [1] Implementation of the Projector Augmented-Wave Method in the ABINIT code.
- M. Torrent, F. Jollet, F. Bottin, G. Zerah, and X. Gonze Comput. Mat. Science 42, 337, (2008).
- Comment: PAW calculations. Strong suggestion to cite this paper.
- DOI and bibtex: see https://docs.abinit.org/theory/bibliography/#torrent2008
-
- [2] Libxc: A library of exchange and correlation functionals for density functional theory.
- M.A.L. Marques, M.J.T. Oliveira, T. Burnus, Computer Physics Communications 183, 2227 (2012).
- Comment: to be cited when LibXC is used (negative value of ixc)
- Strong suggestion to cite this paper.
- DOI and bibtex: see https://docs.abinit.org/theory/bibliography/#marques2012
-
- [3] Large scale ab initio calculations based on three levels of parallelization
- F. Bottin, S. Leroux, A. Knyazev, G. Zerah, Comput. Mat. Science 42, 329, (2008).
- Comment: in case LOBPCG algorithm is used (wfoptalg=4/14/114).
- Strong suggestion to cite this paper in your publications.
- This paper is also available at http://www.arxiv.org/abs/0707.3405
- DOI and bibtex: see https://docs.abinit.org/theory/bibliography/#bottin2008
-
- [4] The Abinit project: Impact, environment and recent developments.
- Computer Phys. Comm. 248, 107042 (2020).
- X.Gonze, B. Amadon, G. Antonius, F.Arnardi, L.Baguet, J.-M.Beuken,
- J.Bieder, F.Bottin, J.Bouchet, E.Bousquet, N.Brouwer, F.Bruneval,
- G.Brunin, T.Cavignac, J.-B. Charraud, Wei Chen, M.Cote, S.Cottenier,
- J.Denier, G.Geneste, Ph.Ghosez, M.Giantomassi, Y.Gillet, O.Gingras,
- D.R.Hamann, G.Hautier, Xu He, N.Helbig, N.Holzwarth, Y.Jia, F.Jollet,
- W.Lafargue-Dit-Hauret, K.Lejaeghere, M.A.L.Marques, A.Martin, C.Martins,
- H.P.C. Miranda, F.Naccarato, K. Persson, G.Petretto, V.Planes, Y.Pouillon,
- S.Prokhorenko, F.Ricci, G.-M.Rignanese, A.H.Romero, M.M.Schmitt, M.Torrent,
- M.J.van Setten, B.Van Troeye, M.J.Verstraete, G.Zerah and J.W.Zwanzig
- Comment: the fifth generic paper describing the ABINIT project.
- Note that a version of this paper, that is not formatted for Computer Phys. Comm. 
- is available at https://www.abinit.org/sites/default/files/ABINIT20.pdf .
- The licence allows the authors to put it on the Web.
- DOI and bibtex: see https://docs.abinit.org/theory/bibliography/#gonze2020
-
- [5] ABINIT: Overview, and focus on selected capabilities
- J. Chem. Phys. 152, 124102 (2020).
- A. Romero, D.C. Allan, B. Amadon, G. Antonius, T. Applencourt, L.Baguet,
- J.Bieder, F.Bottin, J.Bouchet, E.Bousquet, F.Bruneval,
- G.Brunin, D.Caliste, M.Cote,
- J.Denier, C. Dreyer, Ph.Ghosez, M.Giantomassi, Y.Gillet, O.Gingras,
- D.R.Hamann, G.Hautier, F.Jollet, G. Jomard,
- A.Martin, 
- H.P.C. Miranda, F.Naccarato, G.Petretto, N.A. Pike, V.Planes,
- S.Prokhorenko, T. Rangel, F.Ricci, G.-M.Rignanese, M.Royo, M.Stengel, M.Torrent,
- M.J.van Setten, B.Van Troeye, M.J.Verstraete, J.Wiktor, J.W.Zwanziger, and X.Gonze.
- Comment: a global overview of ABINIT, with focus on selected capabilities .
- Note that a version of this paper, that is not formatted for J. Chem. Phys 
- is available at https://www.abinit.org/sites/default/files/ABINIT20_JPC.pdf .
- The licence allows the authors to put it on the Web.
- DOI and bibtex: see https://docs.abinit.org/theory/bibliography/#romero2020
-
- [6] Recent developments in the ABINIT software package.
- Computer Phys. Comm. 205, 106 (2016).
- X.Gonze, F.Jollet, F.Abreu Araujo, D.Adams, B.Amadon, T.Applencourt,
- C.Audouze, J.-M.Beuken, J.Bieder, A.Bokhanchuk, E.Bousquet, F.Bruneval
- D.Caliste, M.Cote, F.Dahm, F.Da Pieve, M.Delaveau, M.Di Gennaro,
- B.Dorado, C.Espejo, G.Geneste, L.Genovese, A.Gerossier, M.Giantomassi,
- Y.Gillet, D.R.Hamann, L.He, G.Jomard, J.Laflamme Janssen, S.Le Roux,
- A.Levitt, A.Lherbier, F.Liu, I.Lukacevic, A.Martin, C.Martins,
- M.J.T.Oliveira, S.Ponce, Y.Pouillon, T.Rangel, G.-M.Rignanese,
- A.H.Romero, B.Rousseau, O.Rubel, A.A.Shukri, M.Stankovski, M.Torrent,
- M.J.Van Setten, B.Van Troeye, M.J.Verstraete, D.Waroquier, J.Wiktor,
- B.Xu, A.Zhou, J.W.Zwanziger.
- Comment: the fourth generic paper describing the ABINIT project.
- Note that a version of this paper, that is not formatted for Computer Phys. Comm. 
- is available at https://www.abinit.org/sites/default/files/ABINIT16.pdf .
- The licence allows the authors to put it on the Web.
- DOI and bibtex: see https://docs.abinit.org/theory/bibliography/#gonze2016
-
- Proc.   0 individual time (sec): cpu=        241.5  wall=        246.3
 
================================================================================
 
 Calculation completed.
.Delivered   0 WARNINGs and   0 COMMENTs to log file.
+Overall time at end (sec) : cpu=      14671.7  wall=      14767.0
